# Kona Param. Contn. convergence history (opt tol = 2.386485e-04 | feas tol = 1.000000e-06)
# outer     inner      cost      objective     lagrangian       opt norm      feas norm       homotopy        hom opt       hom feas     mu             
      0         0        20      2.647e+02      2.647e+02     2.3865e+00     0.0000e+00     0.0000e+00     0.0000e+00     0.0000e+00     1.0000     

      1         0        36      2.642e+02      2.642e+02     2.3865e+00     2.6087e-01      2.044e+01     1.4258e-02     2.0163e-02     9.227062e-01          
      1         1        80      2.642e+02      2.642e+02     2.3572e+00     2.6957e-01      2.044e+01     5.3290e-07     3.7469e-08     9.227062e-01          

      2         0       121      2.633e+02      2.634e+02     2.3397e+00     7.3268e-01      5.605e+01     7.3633e-02     1.2154e-01     7.876210e-01          
      2         1       165      2.633e+02      2.634e+02     2.3020e+00     6.0466e-01      5.607e+01     1.2875e-04     7.1817e-06     7.876210e-01          

      3         0       209      2.624e+02      2.625e+02     2.4226e+00     7.5147e-01      8.857e+01     3.1453e-01     1.7776e-01     6.641225e-01          
      3         1       260      2.623e+02      2.625e+02     2.4813e+00     6.1496e-01      8.866e+01     4.2141e-04     1.2279e-05     6.641225e-01          

      4         0       320      2.610e+02      2.611e+02     2.5921e+00     5.0261e-01      1.271e+02     6.6479e-01     1.6492e-01     5.180235e-01          
      4         1       373      2.607e+02      2.609e+02     2.7345e+00     4.4840e-01      1.274e+02     1.1177e-03     2.7667e-05     5.180235e-01          

      5         0       435      2.586e+02      2.587e+02     2.6349e+00     2.6915e-01      1.641e+02     9.5275e-01     1.1183e-01     3.780054e-01          
      5         1       481      2.579e+02      2.580e+02     2.8659e+00     2.8132e-01      1.646e+02     2.7364e-03     6.9878e-05     3.780054e-01          

      6         0       541      2.552e+02      2.552e+02     2.6276e+00     1.7806e-01      1.897e+02     1.1434e+00     8.4146e-02     2.816243e-01          
      6         1       595      2.542e+02      2.543e+02     2.9085e+00     1.8741e-01      1.904e+02     3.8618e-03     4.1450e-05     2.816243e-01          

      7         0       656      2.510e+02      2.511e+02     2.6250e+00     1.3192e-01      2.066e+02     1.2744e+00     6.6624e-02     2.185596e-01          
      7         1       703      2.501e+02      2.502e+02     2.9227e+00     1.3554e-01      2.074e+02     4.1783e-03     1.6507e-05     2.185596e-01          

      8         0       765      2.464e+02      2.464e+02     2.6235e+00     1.0140e-01      2.186e+02     1.3758e+00     5.3477e-02     1.740464e-01          
      8         1       823      2.454e+02      2.455e+02     2.9274e+00     1.0302e-01      2.195e+02     4.5605e-03     2.7804e-05     1.740464e-01          

      9         0       889      2.411e+02      2.411e+02     2.6188e+00     8.0418e-02      2.275e+02     1.4469e+00     4.3223e-02     1.414999e-01          
      9         1       952      2.401e+02      2.402e+02     2.9274e+00     8.1215e-02      2.284e+02     4.8340e-03     4.0655e-05     1.414999e-01          

     10         0      1019      2.352e+02      2.352e+02     2.6116e+00     6.5416e-02      2.343e+02     1.4987e+00     3.5268e-02     1.169985e-01          
     10         1      1095      2.342e+02      2.342e+02     2.9245e+00     6.5846e-02      2.353e+02     5.0309e-03     6.7797e-06     1.169985e-01          

     11         0      1165      2.287e+02      2.287e+02     2.6022e+00     5.4357e-02      2.396e+02     1.5373e+00     2.9050e-02     9.811264e-02          
     11         1      1244      2.277e+02      2.277e+02     2.9191e+00     5.4607e-02      2.406e+02     5.1641e-03     8.8996e-06     9.811264e-02          

     12         0      1317      2.215e+02      2.216e+02     2.5906e+00     4.5996e-02      2.438e+02     1.5662e+00     2.4129e-02     8.325789e-02          
     12         1      1396      2.205e+02      2.205e+02     2.9112e+00     4.6153e-02      2.448e+02     5.2430e-03     1.1720e-05     8.325789e-02          

     13         0      1470      2.137e+02      2.138e+02     2.5764e+00     3.9546e-02      2.471e+02     1.5876e+00     2.0183e-02     7.136446e-02          
     13         1      1549      2.127e+02      2.127e+02     2.9007e+00     3.9651e-02      2.482e+02     5.2749e-03     1.4940e-05     7.136446e-02          

     14         0      1638      2.053e+02      2.053e+02     2.5594e+00     3.4487e-02      2.498e+02     1.6027e+00     1.6980e-02     6.168858e-02          
     14         1      1717      2.042e+02      2.042e+02     2.8870e+00     3.4562e-02      2.509e+02     5.2659e-03     3.4824e-05     6.168858e-02          

     15         0      1805      1.961e+02      1.962e+02     2.5391e+00     3.0468e-02      2.519e+02     1.6124e+00     1.4351e-02     5.370027e-02          
     15         1      1883      1.950e+02      1.950e+02     2.8695e+00     3.0522e-02      2.531e+02     5.2203e-03     4.3661e-05     5.370027e-02          

     16         0      1984      1.863e+02      1.863e+02     2.5148e+00     2.7245e-02      2.535e+02     1.6172e+00     1.2173e-02     4.701306e-02          
     16         1      2062      1.852e+02      1.852e+02     2.8474e+00     2.7282e-02      2.546e+02     5.1407e-03     6.0630e-05     4.701306e-02          

     17         0      2163      1.758e+02      1.758e+02     2.4857e+00     2.4647e-02      2.545e+02     1.6170e+00     1.0365e-02     4.133861e-02          
     17         1      2273      1.746e+02      1.746e+02     2.8197e+00     2.4662e-02      2.556e+02     5.0255e-03     8.4578e-05     4.133861e-02          

     18         0      2375      1.645e+02      1.645e+02     2.4504e+00     2.2561e-02      2.548e+02     1.6118e+00     8.8929e-03     3.645632e-02          
     18         1      2499      1.633e+02      1.633e+02     2.7848e+00     2.2531e-02      2.559e+02     4.8746e-03     2.4451e-05     3.645632e-02          

     19         0      2613      1.524e+02      1.524e+02     2.4074e+00     2.0932e-02      2.543e+02     1.6009e+00     7.8177e-03     3.219168e-02          
     19         1      2757      1.512e+02      1.512e+02     2.7407e+00     2.0793e-02      2.554e+02     4.6921e-03     7.9222e-05     3.219168e-02          

     20         0      2875      1.394e+02      1.394e+02     2.3540e+00     1.9820e-02      2.528e+02     1.5836e+00     7.4600e-03     2.840213e-02          
     20         1      2996      1.382e+02      1.382e+02     2.6844e+00     1.9376e-02      2.538e+02     4.4920e-03     4.9497e-05     2.840213e-02          

     21         0      3114      1.254e+02      1.254e+02     2.2868e+00     1.9629e-02      2.498e+02     1.5583e+00     8.7746e-03     2.497794e-02          
     21         1      3236      1.243e+02      1.243e+02     2.6114e+00     1.8222e-02      2.508e+02     4.1244e-03     6.7424e-05     2.497794e-02          

     22         0      3370      1.102e+02      1.102e+02     2.1988e+00     2.2217e-02      2.446e+02     1.5229e+00     1.4221e-02     2.176678e-02          
     22         1      3511      1.091e+02      1.092e+02     2.5133e+00     1.7288e-02      2.454e+02     3.7146e-03     1.2838e-04     2.176678e-02          

     23         0      3670      9.322e+01      9.324e+01     2.0773e+00     3.5350e-02      2.356e+02     1.4727e+00     3.0732e-02     1.861542e-02          
     23         1      3827      9.229e+01      9.231e+01     2.3743e+00     1.6443e-02      2.362e+02     3.0764e-03     1.5886e-04     1.861542e-02          

     24         0      3986      7.330e+01      7.332e+01     1.8915e+00     9.6805e-02      2.191e+02     1.3995e+00     9.3920e-02     1.523494e-02          
     24         1      4160      7.270e+01      7.272e+01     2.1560e+00     1.5596e-02      2.194e+02     1.8479e-03     2.9409e-04     1.523494e-02          

     25         0      4335      4.524e+01      4.528e+01     1.5193e+00     7.1799e-01      1.789e+02     1.2836e+00     7.1002e-01     1.057846e-02          
     25         1      4511      4.545e+01      4.547e+01     1.6848e+00     1.4938e-02      1.789e+02     1.9773e-02     3.2109e-03     1.057846e-02          

     26         0      4689      1.332e+01      1.428e+01     8.1553e-01     1.4592e+01      8.795e+01     1.1400e+00     1.4527e+01     4.429232e-03          
     26         1      4920      1.721e+01      1.405e+01     6.6237e-01     5.6923e+00      8.622e+01     4.0437e-01     5.6696e+00     4.429232e-03          

     27         0      5343      1.736e+01      1.430e+01     6.4532e-01     2.5637e+00      1.430e+01     6.4532e-01     2.5637e+00     0.000000e+00          
     27         1      5567      1.670e+01      1.586e+01     6.1022e-01     1.3791e+00      1.586e+01     6.1022e-01     1.3791e+00     0.000000e+00          
     27         2      5799      1.662e+01      1.610e+01     3.2755e-01     9.2522e-01      1.610e+01     3.2755e-01     9.2522e-01     0.000000e+00          
     27         3      6034      1.630e+01      1.616e+01     3.4506e-01     6.4822e-01      1.616e+01     3.4506e-01     6.4822e-01     0.000000e+00          
     27         4      6271      1.640e+01      1.621e+01     2.9109e-01     4.9865e-01      1.621e+01     2.9109e-01     4.9865e-01     0.000000e+00          
     27         5      6500      1.629e+01      1.623e+01     2.9859e-01     3.6582e-01      1.623e+01     2.9859e-01     3.6582e-01     0.000000e+00          
     27         6      6732      1.635e+01      1.624e+01     2.8387e-01     2.8708e-01      1.624e+01     2.8387e-01     2.8708e-01     0.000000e+00          
     27         7      6965      1.627e+01      1.624e+01     2.8639e-01     2.1473e-01      1.624e+01     2.8639e-01     2.1473e-01     0.000000e+00          
     27         8      7199      1.630e+01      1.624e+01     2.8097e-01     1.7090e-01      1.624e+01     2.8097e-01     1.7090e-01     0.000000e+00          
     27         9      7434      1.625e+01      1.623e+01     2.8126e-01     1.2996e-01      1.623e+01     2.8126e-01     1.2996e-01     0.000000e+00          
