# Kona Param. Contn. convergence history (opt tol = 2.630149e-06 | feas tol = 2.329004e-05)
# outer     inner      cost      objective     lagrangian       opt norm      feas norm       homotopy        hom opt       hom feas     mu             
      0         0         1      2.153e+02      2.153e+02     2.6301e+01     2.3290e+02     0.0000e+00     0.0000e+00     0.0000e+00     1.0000     

      1         0         8      6.438e+00      3.485e+04     1.9541e+03     2.3383e+02      1.836e+04     1.2507e+03     9.5999e+01     3.600217e-01          
      1         1        21      5.233e+02      1.731e+03     3.0763e+02     2.6069e+01      1.686e+03     1.7523e+02     1.5959e-03     3.600217e-01          

      2         0        51      2.920e+02      4.726e+02     6.6802e+01     8.3275e+00      1.651e+03     2.3737e+01     4.5509e-01     2.903291e-01          
      2         1        66      1.957e+02      3.223e+02     4.4911e+01     7.1944e+00      1.787e+03     1.9778e+00     1.2211e-06     2.903291e-01          

      3         0        81      1.837e+02      2.829e+02     3.9660e+01     5.8503e+00      1.666e+03     4.7731e+00     1.1386e-01     2.591874e-01          
      3         1        94      1.756e+02      2.710e+02     3.7893e+01     5.7754e+00      1.684e+03     4.8027e-02     1.3126e-06     2.591874e-01          

      4         0       109      1.331e+02      1.633e+02     2.2802e+01     2.1267e+00      1.195e+03     4.2035e+00     6.7499e-01     1.575525e-01          
      4         1       126      1.196e+02      1.591e+02     2.2129e+01     2.7158e+00      1.221e+03     1.1423e-01     2.1803e-06     1.575525e-01          

      5         0       143      5.852e+01      6.432e+01     9.9186e+00     7.1449e-01      5.334e+02     3.0947e+00     6.1360e-01     5.340213e-02          
      5         1       162      3.220e+01      4.696e+01     8.1924e+00     9.1273e-01      5.817e+02     4.0665e-01     3.2542e-07     5.340213e-02          

      6         0       200      1.391e+00      1.244e+01     4.4771e+00     5.8026e-01      2.950e+02     9.2836e-01     1.4918e-01     2.320706e-02          
      6         1       223     -3.044e+00      1.067e+01     3.8860e+00     5.7088e-01      3.065e+02     1.8386e-01     8.2823e-09     2.320706e-02          

      7         0       265     -1.455e+01     -1.076e+00     2.3186e+00     4.4554e-01      1.704e+02     3.1448e-01     8.1629e-02     1.201332e-02          
      7         1       292     -1.434e+01     -6.069e-01     2.1145e+00     4.0866e-01      1.730e+02     3.1257e-02     2.7999e-06     1.201332e-02          

      8         0       317     -1.750e+01     -5.126e+00     1.1356e+00     2.9138e-01      7.887e+01     1.8884e-01     6.3740e-02     5.379921e-03          
      8         1       360     -1.576e+01     -4.430e+00     9.9620e-01     2.4750e-01      7.968e+01     6.4430e-02     3.6357e-05     5.379921e-03          

      9         0       428     -1.405e+01     -5.438e+00     5.6674e-01     1.6493e-01      4.012e+01     5.5475e-02     1.7880e-02     2.827583e-03          
      9         1       471     -1.326e+01     -5.252e+00     5.3105e-01     1.5070e-01      4.025e+01     4.7759e-03     3.9895e-05     2.827583e-03          

     10         0       514     -1.012e+01     -5.565e+00     2.4175e-01     7.7623e-02      1.333e+01     3.0538e-02     1.0314e-02     1.156644e-03          
     10         1       557     -9.572e+00     -5.502e+00     2.2049e-01     6.8591e-02      1.338e+01     1.8406e-03     6.7170e-04     1.156644e-03          

     11         0       600     -6.973e+00     -5.620e+00     6.4541e-02     2.1579e-02     -7.657e-01     1.0747e-02     3.3561e-03     2.955211e-04          
     11         1       643     -6.775e+00     -5.611e+00     5.6753e-02     1.8502e-02     -7.572e-01     2.6313e-03     1.3517e-03     2.955211e-04          

     12         0       729     -5.979e+00     -5.631e+00     1.6660e-02     5.4928e-03     -4.268e+00     2.0260e-03     7.8909e-04     8.298907e-05          
     12         1       772     -5.970e+00     -5.630e+00     1.6019e-02     5.3221e-03     -4.267e+00     9.3586e-04     2.7218e-04     8.298907e-05          

     13         0       858     -5.781e+00     -5.636e+00     6.9447e-03     2.2780e-03     -5.054e+00     9.5110e-04     2.4634e-04     3.541162e-05          
     13         1       901     -5.782e+00     -5.635e+00     6.8894e-03     2.2898e-03     -5.054e+00     4.9144e-04     8.8026e-05     3.541162e-05          

     14         0       987     -5.707e+00     -5.638e+00     3.3475e-03     1.0919e-03     -5.361e+00     5.7665e-04     1.9171e-04     1.682821e-05          
     14         1      1030     -5.708e+00     -5.638e+00     3.2802e-03     1.0951e-03     -5.362e+00     2.7593e-04     5.5147e-05     1.682821e-05          

     15         0      1116     -5.649e+00     -5.639e+00     7.4445e-04     2.3469e-04     -5.597e+00     4.8497e-04     1.7051e-04     2.565231e-06          
     15         1      1159     -5.652e+00     -5.640e+00     5.2006e-04     2.0150e-04     -5.598e+00     1.5153e-04     8.1202e-05     2.565231e-06          

     16         0      1245     -5.642e+00     -5.640e+00     1.9217e-04     4.1445e-05     -5.635e+00     1.7522e-04     2.9663e-05     3.086526e-07          
     16         1      1288     -5.642e+00     -5.640e+00     1.4613e-04     6.6198e-05     -5.635e+00     1.2479e-04     6.1680e-05     3.086526e-07          

     17         0      1374     -5.642e+00     -5.640e+00     1.1584e-04     2.9552e-05     -5.638e+00     1.0600e-04     2.4442e-05     1.752083e-07          
     17         1      1417     -5.641e+00     -5.640e+00     9.0654e-05     4.1957e-05     -5.638e+00     7.9261e-05     3.9291e-05     1.752083e-07          

     18         0      1503     -5.641e+00     -5.640e+00     8.3117e-05     1.4638e-05     -5.638e+00     7.3938e-05     8.1365e-06     1.461106e-07          
     18         1      1546     -5.641e+00     -5.641e+00     7.3300e-05     2.1768e-05     -5.638e+00     6.3164e-05     1.9615e-05     1.461106e-07          

     19         0      1632     -5.641e+00     -5.641e+00     6.4161e-05     1.2817e-05     -5.639e+00     5.8852e-05     1.0647e-05     8.952683e-08          
     19         1      1675     -5.641e+00     -5.641e+00     6.0474e-05     1.5748e-05     -5.639e+00     5.5251e-05     1.3753e-05     8.952683e-08          
     19         2      1718     -5.641e+00     -5.641e+00     3.5996e-05     2.2835e-05     -5.639e+00     3.0471e-05     2.1747e-05     8.952683e-08          
     19         3      1761     -5.641e+00     -5.641e+00     3.3065e-05     7.3978e-06     -5.639e+00     2.5676e-05     2.8363e-06     8.952683e-08          
     19         4      1804     -5.641e+00     -5.641e+00     2.4369e-05     1.0830e-05     -5.639e+00     1.4947e-05     8.8757e-06     8.952683e-08          
     19         5      1847     -5.641e+00     -5.641e+00     2.2077e-05     6.3603e-06     -5.639e+00     1.1456e-05     1.2420e-06     8.952683e-08          
     19         6      1890     -5.641e+00     -5.641e+00     2.1013e-05     7.3104e-06     -5.639e+00     9.7319e-06     3.8391e-06     8.952683e-08          
     19         7      1933     -5.641e+00     -5.641e+00     2.0752e-05     6.2320e-06     -5.639e+00     9.2724e-06     1.2630e-06     8.952683e-08          
     19         8      1976     -5.641e+00     -5.641e+00     1.9192e-05     7.3754e-06     -5.639e+00     6.4126e-06     4.2482e-06     8.952683e-08          
     19         9      2019     -5.641e+00     -5.641e+00     1.9151e-05     6.0618e-06     -5.639e+00     6.1657e-06     8.8245e-07     8.952683e-08          
