# Kona Param. Contn. convergence history (opt tol = 2.386485e-04 | feas tol = 1.000000e-06)
# outer     inner      cost      objective     lagrangian       opt norm      feas norm       homotopy        hom opt       hom feas     mu             
      0         0        20      2.647e+02      2.647e+02     2.3865e+00     0.0000e+00     0.0000e+00     0.0000e+00     0.0000e+00     1.0000     

      1         0        36      2.645e+02      2.645e+02     2.3865e+00     6.5217e-02      5.113e+00     8.9110e-04     1.2602e-03     9.806766e-01          
      1         1       225      2.645e+02      2.645e+02     2.3846e+00     6.6323e-02      5.113e+00     1.0063e-10     2.4890e-13     9.806766e-01          

      2         0       405      2.643e+02      2.643e+02     2.3820e+00     1.9652e-01      1.500e+01     3.5669e-03     8.6545e-03     9.432746e-01          
      2         1       593      2.643e+02      2.643e+02     2.3704e+00     1.9799e-01      1.500e+01     4.4526e-08     7.7840e-12     9.432746e-01          

      3         0       783      2.640e+02      2.640e+02     2.3652e+00     3.7716e-01      2.845e+01     1.2456e-02     2.9582e-02     8.923548e-01          
      3         1       973      2.640e+02      2.640e+02     2.3339e+00     3.6974e-01      2.845e+01     1.4643e-06     2.8175e-11     8.923548e-01          

      4         0      1163      2.637e+02      2.638e+02     2.3471e+00     4.8427e-01      3.807e+01     3.5910e-02     4.9332e-02     8.559035e-01          
      4         1      1353      2.637e+02      2.638e+02     2.3076e+00     4.7470e-01      3.807e+01     2.9864e-06     4.9779e-12     8.559035e-01          

      5         0      1544      2.635e+02      2.636e+02     2.3381e+00     5.5486e-01      4.625e+01     6.8506e-02     6.8404e-02     8.248620e-01          
      5         1      1734      2.635e+02      2.636e+02     2.2955e+00     5.4566e-01      4.626e+01     4.7138e-06     2.9234e-12     8.248620e-01          

      6         0      1925      2.633e+02      2.634e+02     2.3368e+00     6.0855e-01      5.464e+01     1.1147e-01     8.8419e-02     7.930301e-01          
      6         1      2115      2.633e+02      2.634e+02     2.2994e+00     5.9788e-01      5.465e+01     8.6798e-06     4.5670e-12     7.930301e-01          

      7         0      2306      2.630e+02      2.631e+02     2.3466e+00     6.4497e-01      6.417e+01     1.7149e-01     1.0973e-01     7.568870e-01          
      7         1      2497      2.630e+02      2.632e+02     2.3273e+00     6.3146e-01      6.418e+01     1.7576e-05     1.5223e-11     7.568870e-01          

      8         0      2689      2.627e+02      2.628e+02     2.3745e+00     6.5702e-01      7.605e+01     2.5940e-01     1.3195e-01     7.118058e-01          
      8         1      2880      2.627e+02      2.629e+02     2.3920e+00     6.3894e-01      7.607e+01     4.0219e-05     1.0755e-10     7.118058e-01          

      9         0      3072      2.622e+02      2.623e+02     2.4327e+00     6.2643e-01      9.251e+01     3.9485e-01     1.5205e-01     6.493875e-01          
      9         1      3263      2.622e+02      2.624e+02     2.5101e+00     6.0255e-01      9.255e+01     1.1084e-04     1.3586e-09     6.493875e-01          

     10         0      3455      2.613e+02      2.614e+02     2.5338e+00     5.1568e-01      1.182e+02     6.0979e-01     1.5794e-01     5.522152e-01          
     10         1      3646      2.611e+02      2.613e+02     2.6851e+00     4.9200e-01      1.183e+02     4.3057e-04     3.1360e-08     5.522152e-01          

     11         0      3838      2.595e+02      2.596e+02     2.6187e+00     3.2828e-01      1.522e+02     8.7277e-01     1.2719e-01     4.234369e-01          
     11         1      4029      2.590e+02      2.591e+02     2.8338e+00     3.3193e-01      1.525e+02     1.6687e-03     4.8584e-07     4.234369e-01          

     12         0      4222      2.565e+02      2.565e+02     2.6296e+00     2.0133e-01      1.819e+02     1.0837e+00     9.1794e-02     3.108046e-01          
     12         1      4414      2.556e+02      2.557e+02     2.8986e+00     2.1391e-01      1.826e+02     3.6288e-03     1.9225e-06     3.108046e-01          

     13         0      4607      2.526e+02      2.526e+02     2.6258e+00     1.4607e-01      2.013e+02     1.2339e+00     7.2383e-02     2.383524e-01          
     13         1      4799      2.516e+02      2.517e+02     2.9192e+00     1.5105e-01      2.020e+02     4.0544e-03     2.2447e-06     2.383524e-01          

     14         0      4992      2.481e+02      2.481e+02     2.6245e+00     1.1089e-01      2.148e+02     1.3441e+00     5.7788e-02     1.882122e-01          
     14         1      5184      2.472e+02      2.472e+02     2.9264e+00     1.1302e-01      2.156e+02     4.4380e-03     2.7050e-06     1.882122e-01          

     15         0      5377      2.430e+02      2.431e+02     2.6208e+00     8.7043e-02      2.246e+02     1.4243e+00     4.6568e-02     1.519738e-01          
     15         1      5569      2.421e+02      2.421e+02     2.9278e+00     8.8058e-02      2.255e+02     4.7453e-03     3.2663e-06     1.519738e-01          

     16         0      5762      2.374e+02      2.374e+02     2.6144e+00     7.0208e-02      2.321e+02     1.4821e+00     3.7867e-02     1.249524e-01          
     16         1      5954      2.364e+02      2.364e+02     2.9258e+00     7.0738e-02      2.330e+02     4.9685e-03     3.9276e-06     1.249524e-01          

     17         0      6147      2.311e+02      2.311e+02     2.6058e+00     5.7922e-02      2.378e+02     1.5249e+00     3.1089e-02     1.042886e-01          
     17         1      6339      2.301e+02      2.301e+02     2.9213e+00     5.8223e-02      2.388e+02     5.1236e-03     4.7166e-06     1.042886e-01          

     18         0      6532      2.242e+02      2.242e+02     2.5950e+00     4.8712e-02      2.424e+02     1.5569e+00     2.5750e-02     8.814653e-02          
     18         1      6724      2.231e+02      2.231e+02     2.9143e+00     4.8896e-02      2.434e+02     5.2207e-03     5.6757e-06     8.814653e-02          

     19         0      6917      2.166e+02      2.166e+02     2.5818e+00     4.1654e-02      2.460e+02     1.5808e+00     2.1489e-02     7.530072e-02          
     19         1      7109      2.155e+02      2.155e+02     2.9048e+00     4.1775e-02      2.471e+02     5.2685e-03     6.8668e-06     7.530072e-02          

     20         0      7302      2.084e+02      2.084e+02     2.5658e+00     3.6149e-02      2.489e+02     1.5980e+00     1.8044e-02     6.490744e-02          
     20         1      7494      2.073e+02      2.073e+02     2.8922e+00     3.6233e-02      2.500e+02     5.2736e-03     8.3924e-06     6.490744e-02          

     21         0      7687      1.995e+02      1.995e+02     2.5468e+00     3.1793e-02      2.513e+02     1.6096e+00     1.5227e-02     5.637060e-02          
     21         1      7879      1.984e+02      1.984e+02     2.8762e+00     3.1854e-02      2.524e+02     5.2406e-03     1.0310e-05     5.637060e-02          

     22         0      8072      1.899e+02      1.899e+02     2.5240e+00     2.8311e-02      2.530e+02     1.6160e+00     1.2901e-02     4.925907e-02          
     22         1      8264      1.888e+02      1.888e+02     2.8559e+00     2.8354e-02      2.541e+02     5.1740e-03     1.3586e-05     4.925907e-02          

     23         0      8467      1.796e+02      1.796e+02     2.4967e+00     2.5507e-02      2.542e+02     1.6176e+00     1.0969e-02     4.325390e-02          
     23         1      8669      1.785e+02      1.785e+02     2.8303e+00     2.5531e-02      2.553e+02     5.0713e-03     1.6704e-05     4.325390e-02          

     24         0      8862      1.686e+02      1.686e+02     2.4637e+00     2.3250e-02      2.548e+02     1.6142e+00     9.3781e-03     3.811358e-02          
     24         1      9054      1.674e+02      1.674e+02     2.7982e+00     2.3241e-02      2.559e+02     4.9356e-03     2.1653e-05     3.811358e-02          

     25         0      9247      1.568e+02      1.568e+02     2.4237e+00     2.1461e-02      2.546e+02     1.6055e+00     8.1438e-03     3.364989e-02          
     25         1      9449      1.556e+02      1.556e+02     2.7577e+00     2.1374e-02      2.557e+02     4.7622e-03     2.9425e-05     3.364989e-02          

     26         0      9642      1.441e+02      1.441e+02     2.3745e+00     2.0147e-02      2.535e+02     1.5907e+00     7.4617e-03     2.971072e-02          
     26         1      9834      1.430e+02      1.430e+02     2.7063e+00     1.9851e-02      2.545e+02     4.5432e-03     4.0953e-05     2.971072e-02          

     27         0     10027      1.305e+02      1.305e+02     2.3127e+00     1.9539e-02      2.511e+02     1.5685e+00     8.0202e-03     2.616527e-02          
     27         1     10219      1.294e+02      1.294e+02     2.6398e+00     1.8607e-02      2.521e+02     4.2630e-03     5.8316e-05     2.616527e-02          

     28         0     10422      1.158e+02      1.158e+02     2.2330e+00     2.0733e-02      2.467e+02     1.5370e+00     1.1588e-02     2.288877e-02          
     28         1     10624      1.147e+02      1.147e+02     2.5517e+00     1.7586e-02      2.476e+02     3.8872e-03     8.8767e-05     2.288877e-02          

     29         0     10827      9.948e+01      9.950e+01     2.1254e+00     2.8413e-02      2.393e+02     1.4926e+00     2.2678e-02     1.973800e-02          
     29         1     11019      9.850e+01      9.851e+01     2.4298e+00     1.6725e-02      2.401e+02     3.3433e-03     1.3931e-04     1.973800e-02          

     30         0     11231      8.085e+01      8.086e+01     1.9683e+00     6.3105e-02      2.262e+02     1.4289e+00     5.9942e-02     1.648881e-02          
     30         1     11433      8.008e+01      8.009e+01     2.2470e+00     1.5917e-02      2.267e+02     2.4024e-03     1.8393e-04     1.648881e-02          

     31         0     11647      5.709e+01      5.711e+01     1.6941e+00     2.8673e-01      1.989e+02     1.3316e+00     2.8253e-01     1.255978e-02          
     31         1     11850      5.710e+01      5.712e+01     1.9158e+00     1.4771e-02      1.989e+02     5.1401e-04     2.9422e-05     1.255978e-02          

     32         0     12073      1.676e+01      1.732e+01     9.5532e-01     1.2536e+01      1.064e+02     1.1842e+00     1.2467e+01     5.506543e-03          
     32         1     12421      2.305e+01      2.326e+01     9.4052e-01     4.1982e+00      1.078e+02     1.4552e-01     4.1748e+00     5.506543e-03          

     33         0     13026      1.863e+01      1.874e+01     6.5044e-01     9.8244e-01      8.248e+01     5.6761e-01     9.7809e-01     3.994305e-03          
     33         1     13387      1.899e+01      1.902e+01     6.8603e-01     8.8152e-02      8.258e+01     7.8754e-02     8.6870e-02     3.994305e-03          

     34         0     14124      1.675e+01      1.678e+01     4.8433e-01     3.5409e-01      6.742e+01     4.1396e-01     3.5277e-01     3.122551e-03          
     34         1     14495      1.689e+01      1.690e+01     5.6443e-01     8.8874e-03      6.749e+01     9.9096e-04     6.6882e-03     3.122551e-03          

     35         0     14912      1.535e+01      1.537e+01     3.8882e-01     2.4128e-01      5.640e+01     3.2604e-01     2.4052e-01     2.499399e-03          
     35         1     15298      1.541e+01      1.542e+01     4.5305e-01     5.2668e-03      5.643e+01     2.3096e-03     2.7373e-03     2.499399e-03          

     36         0     15719      1.431e+01      1.433e+01     3.3702e-01     1.7537e-01      4.745e+01     2.6652e-01     1.7490e-01     1.999399e-03          
     36         1     16151      1.430e+01      1.430e+01     3.6193e-01     3.5126e-03      4.743e+01     6.5748e-03     4.1319e-04     1.999399e-03          

     37         0     16586      1.323e+01      1.325e+01     2.4179e-01     2.4803e-01      3.833e+01     2.1127e-01     2.4759e-01     1.499399e-03          
     37         1     17030      1.325e+01      1.325e+01     2.7285e-01     3.0680e-03      3.833e+01     4.1641e-03     1.6012e-03     1.499399e-03          

     38         0     17473      1.222e+01      1.224e+01     1.5502e-01     3.6482e-01      2.911e+01     1.6055e-01     3.6441e-01     9.993993e-04          
     38         1     18946      1.225e+01      1.225e+01     1.8864e-01     5.8542e-03      2.912e+01     9.0228e-03     5.5619e-03     9.993993e-04          

     39         0     20524      1.140e+01      1.142e+01     1.0039e-01     4.1531e-01      2.118e+01     1.1011e-01     4.1506e-01     5.732148e-04          
     39         1     22063      1.141e+01      1.141e+01     1.0362e-01     8.9909e-03      2.117e+01     6.0204e-03     8.9098e-03     5.732148e-04          

     40         0     23762      1.095e+01      1.096e+01     5.3812e-02     1.9728e-01      1.672e+01     6.3346e-02     1.9720e-01     3.367956e-04          
     40         1     25333      1.096e+01      1.096e+01     6.3900e-02     5.1726e-03      1.672e+01     3.2635e-03     5.1253e-03     3.367956e-04          

     41         0     27098      1.072e+01      1.072e+01     3.6655e-02     8.2504e-02      1.431e+01     3.6227e-02     8.2481e-02     2.093277e-04          
     41         1     28809      1.071e+01      1.071e+01     3.8398e-02     6.5987e-04      1.430e+01     8.1300e-04     5.6363e-04     2.093277e-04          

     42         0     30584      1.055e+01      1.055e+01     2.1717e-02     4.3889e-02      1.277e+01     2.2444e-02     4.3881e-02     1.292107e-04          
     42         1     32351      1.054e+01      1.054e+01     2.3925e-02     4.1439e-04      1.276e+01     1.6336e-04     3.5664e-04     1.292107e-04          

     43         0     34134      1.041e+01      1.041e+01     1.2639e-02     3.4421e-02      1.160e+01     1.3978e-02     3.4417e-02     6.866795e-05          
     43         1     35904      1.041e+01      1.041e+01     1.2191e-02     8.3185e-04      1.159e+01     1.1506e-03     8.2086e-04     6.866795e-05          

     44         0     37691      1.033e+01      1.033e+01     6.3438e-03     1.7522e-02      1.093e+01     7.4783e-03     1.7520e-02     3.480029e-05          
     44         1     39465      1.033e+01      1.033e+01     6.2422e-03     2.3235e-04      1.093e+01     4.7669e-04     2.2370e-04     3.480029e-05          

     45         0     41263      1.029e+01      1.029e+01     3.4193e-03     4.8896e-03      1.065e+01     3.7538e-03     4.8886e-03     2.042542e-05          
     45         1     43053      1.029e+01      1.029e+01     3.6836e-03     7.3682e-05      1.065e+01     2.5803e-04     6.5757e-05     2.042542e-05          

     46         0     44858      1.027e+01      1.027e+01     1.9422e-03     2.3218e-03      1.047e+01     2.2035e-03     2.3212e-03     1.137717e-05          
     46         1     46669      1.027e+01      1.027e+01     2.0620e-03     3.0940e-05      1.047e+01     1.0939e-04     2.4880e-05     1.137717e-05          

     47         0     48484      1.026e+01      1.026e+01     1.1813e-03     1.2162e-03      1.035e+01     1.2410e-03     1.2160e-03     5.404047e-06          
     47         1     50294      1.026e+01      1.026e+01     9.2482e-04     1.8704e-05      1.035e+01     1.8513e-04     1.6269e-05     5.404047e-06          

     48         0     52124      1.025e+01      1.025e+01     4.6986e-04     4.0215e-04      1.029e+01     5.8899e-04     4.0200e-04     2.357785e-06          
     48         1     53939      1.025e+01      1.025e+01     4.7128e-04     1.2682e-05      1.029e+01     6.6150e-05     1.1908e-05     2.357785e-06          

     49         0     55764      1.025e+01      1.025e+01     2.9891e-04     7.1351e-05      1.027e+01     2.7167e-04     7.1214e-05     1.337539e-06          
     49         1     57575      1.025e+01      1.025e+01     2.3993e-04     1.2263e-05      1.027e+01     4.6367e-05     1.1979e-05     1.337539e-06          

     50         0     61217      1.025e+01      1.025e+01     1.1389e-04     4.8539e-05      1.026e+01     1.6291e-04     4.8484e-05     6.307443e-07          
     50         1     63038      1.025e+01      1.025e+01     1.0843e-04     1.8261e-06      1.026e+01     3.6039e-05     1.5208e-06     6.307443e-07          
     50         2     64847      1.025e+01      1.025e+01     1.2103e-04     2.6687e-06      1.026e+01     1.0114e-05     2.4651e-06     6.307443e-07          
     50         3     66672      1.025e+01      1.025e+01     1.1571e-04     9.0356e-07      1.026e+01     6.5912e-06     7.7047e-08     6.307443e-07          
