# Kona Param. Contn. convergence history (opt tol = 2.630149e-06 | feas tol = 2.329004e-05)
# outer     inner      cost      objective     lagrangian       opt norm      feas norm       homotopy        hom opt       hom feas     mu             
      0         0         1      2.153e+02      2.153e+02     2.6301e+01     2.3290e+02     0.0000e+00     0.0000e+00     0.0000e+00     1.0000     

      1         0         8      6.438e+00      3.485e+04     1.9541e+03     2.3383e+02      1.836e+04     1.2507e+03     9.5999e+01     3.600217e-01          
      1         1        45      5.233e+02      1.731e+03     3.0760e+02     2.6067e+01      1.686e+03     1.7521e+02     2.6144e-03     3.600217e-01          

      2         0       181      2.922e+02      4.745e+02     6.7044e+01     8.4015e+00      1.655e+03     2.3747e+01     4.4166e-01     2.914854e-01          
      2         1       254      1.962e+02      3.237e+02     4.5119e+01     7.2438e+00      1.791e+03     1.9736e+00     1.3658e-02     2.914854e-01          

      3         0       328      1.843e+02      2.845e+02     3.9897e+01     5.9034e+00      1.671e+03     4.8051e+00     1.1507e-01     2.605777e-01          
      3         1       401      1.763e+02      2.726e+02     3.8129e+01     5.8276e+00      1.690e+03     4.8303e-02     7.9777e-04     2.605777e-01          

      4         0       475      1.340e+02      1.648e+02     2.3026e+01     2.1636e+00      1.204e+03     4.2389e+00     6.7340e-01     1.591978e-01          
      4         1       548      1.207e+02      1.608e+02     2.2362e+01     2.7543e+00      1.230e+03     1.1362e-01     4.6590e-03     1.591978e-01          

      5         0       622      5.933e+01      6.501e+01     9.9908e+00     7.1946e-01      5.362e+02     3.1368e+00     6.3084e-01     5.382113e-02          
      5         1       695      3.267e+01      4.751e+01     8.2692e+00     9.3303e-01      5.851e+02     4.3976e-01     1.7740e-01     5.382113e-02          

      6         0       843      2.020e+00      1.300e+01     4.5297e+00     6.0011e-01      2.988e+02     9.3464e-01     2.1786e-01     2.356884e-02          
      6         1       916     -2.750e+00      1.105e+01     3.9732e+00     6.2235e-01      3.102e+02     1.7795e-01     1.9564e-01     2.356884e-02          

      7         0      1064     -1.544e+01     -1.773e+00     2.3163e+00     5.6752e-01      1.639e+02     3.9878e-01     3.4299e-01     1.155759e-02          
      7         1      1137     -1.387e+01     -4.990e-01     2.0806e+00     4.4721e-01      1.665e+02     1.1045e-01     2.1870e-01     1.155759e-02          

      8         0      1285     -1.467e+01     -3.478e+00     1.3654e+00     4.7107e-01      8.569e+01     3.4109e-01     3.8814e-01     5.902574e-03          
      8         1      1358     -1.509e+01     -3.607e+00     1.2369e+00     4.5524e-01      8.672e+01     1.8666e-01     3.6961e-01     5.902574e-03          

      9         0      1506     -1.279e+01     -4.743e+00     7.3701e-01     3.9355e-01      3.879e+01     2.5243e-01     3.6105e-01     2.764799e-03          
      9         1      1579     -1.282e+01     -4.880e+00     6.3668e-01     3.6939e-01      3.904e+01     1.5646e-01     3.3642e-01     2.764799e-03          

     10         0      1727     -1.181e+01     -5.442e+00     4.4965e-01     2.5906e-01      4.480e+00     3.4258e-01     2.4570e-01     6.150505e-04          
     10         1      1800     -8.324e+00     -5.172e+00     3.7574e-01     2.0128e-01      4.621e+00     2.6845e-01     1.9468e-01     6.150505e-04          

     11         0      1948     -6.941e+00     -5.102e+00     3.5576e-01     1.8538e-01      4.035e+00     2.5389e-01     1.8280e-01     5.776572e-04          
     11         1      2021     -6.843e+00     -5.141e+00     3.2904e-01     1.8966e-01      4.020e+00     2.2620e-01     1.8759e-01     5.776572e-04          

     12         0      2169     -6.155e+00     -5.146e+00     3.1424e-01     1.9222e-01      2.010e+00     2.3321e-01     1.9176e-01     4.525976e-04          
     12         1      2242     -6.243e+00     -5.189e+00     3.0325e-01     2.0080e-01      1.979e+00     2.2206e-01     2.0025e-01     4.525976e-04          

     13         0      2390     -4.828e+00     -5.250e+00     2.6927e-01     2.1721e-01     -3.441e+00     2.4873e-01     2.1753e-01     1.147930e-04          
     13         1      2463     -4.834e+00     -5.245e+00     2.6877e-01     2.1405e-01     -3.437e+00     2.4828e-01     2.1436e-01     1.147930e-04          

     14         0      2611     -4.802e+00     -5.305e+00     2.6316e-01     2.1482e-01     -4.338e+00     2.5225e-01     2.1498e-01     6.140798e-05          
     14         1      2684     -4.766e+00     -5.322e+00     2.6311e-01     2.1356e-01     -4.355e+00     2.5220e-01     2.1374e-01     6.140798e-05          

     15         0      2832     -4.562e+00     -5.349e+00     2.6002e-01     2.1562e-01     -4.884e+00     2.5476e-01     2.1573e-01     2.956038e-05          
     15         1      2905     -4.634e+00     -5.354e+00     2.6008e-01     2.1500e-01     -4.889e+00     2.5482e-01     2.1511e-01     2.956038e-05          

     16         0      3053     -4.450e+00     -5.339e+00     2.5800e-01     2.1567e-01     -5.101e+00     2.5530e-01     2.1573e-01     1.509601e-05          
     16         1      3126     -4.487e+00     -5.360e+00     2.5826e-01     2.1404e-01     -5.123e+00     2.5556e-01     2.1410e-01     1.509601e-05          

     17         0      3274     -4.343e+00     -5.367e+00     2.5504e-01     2.1652e-01     -5.367e+00     2.5504e-01     2.1652e-01     1.694066e-21          
     17         1      3347     -4.476e+00     -5.355e+00     2.5588e-01     2.1476e-01     -5.355e+00     2.5588e-01     2.1476e-01     1.694066e-21          
     17         2      3421     -4.428e+00     -5.431e+00     2.5241e-01     2.1555e-01     -5.431e+00     2.5241e-01     2.1555e-01     1.694066e-21          
     17         3      3495     -4.461e+00     -5.556e+00     2.4731e-01     2.1536e-01     -5.556e+00     2.4731e-01     2.1536e-01     1.694066e-21          
     17         4      3569     -4.437e+00     -5.538e+00     2.4547e-01     2.1079e-01     -5.538e+00     2.4547e-01     2.1079e-01     1.694066e-21          
     17         5      3643     -4.284e+00     -5.592e+00     2.4067e-01     2.1135e-01     -5.592e+00     2.4067e-01     2.1135e-01     1.694066e-21          
     17         6      3717     -4.297e+00     -5.567e+00     2.4189e-01     2.0632e-01     -5.567e+00     2.4189e-01     2.0632e-01     1.694066e-21          
     17         7      3791     -4.340e+00     -5.570e+00     2.4154e-01     2.0662e-01     -5.570e+00     2.4154e-01     2.0662e-01     1.694066e-21          
     17         8      3865     -4.228e+00     -5.574e+00     2.4124e-01     2.0682e-01     -5.574e+00     2.4124e-01     2.0682e-01     1.694066e-21          
     17         9      3939     -4.221e+00     -5.571e+00     2.4145e-01     2.0655e-01     -5.571e+00     2.4145e-01     2.0655e-01     1.694066e-21          
