# Kona Param. Contn. convergence history (opt tol = 1.392962e-06 | feas tol = 2.245265e-05)
# outer     inner      cost      objective     lagrangian       opt norm      feas norm       homotopy        hom opt       hom feas     mu             
      0         0         1      1.295e+02      1.295e+02     1.3930e+01     2.2453e+02     0.0000e+00     0.0000e+00     0.0000e+00     1.0000     

      1         0         8      1.294e+02      1.546e+02     1.3976e+01     2.2453e+02      7.103e-02     5.6336e-04     5.6085e-05     9.995000e-01          
      1         1        15      1.294e+02      1.546e+02     1.3976e+01     2.2453e+02      7.103e-02     5.9072e-09     6.8179e-12     9.995000e-01          

      2         0        22      1.286e+02      3.733e+02     1.7716e+01     2.2451e+02      1.221e+00     4.2720e-02     4.2032e-03     9.951502e-01          
      2         1        29      1.285e+02      3.741e+02     1.7740e+01     2.2447e+02      1.223e+00     3.1097e-06     4.6579e-08     9.951502e-01          

      3         0        36      1.277e+02      5.915e+02     2.4983e+01     2.2437e+02      3.311e+00     4.2295e-02     3.7391e-03     9.908553e-01          
      3         1        43      1.277e+02      5.921e+02     2.5007e+01     2.2432e+02      3.318e+00     4.4436e-06     1.4349e-07     9.908553e-01          

      4         0        50      1.268e+02      8.110e+02     3.3616e+01     2.2412e+02      6.400e+00     4.3020e-02     3.3905e-03     9.865482e-01          
      4         1        57      1.268e+02      8.115e+02     3.3636e+01     2.2408e+02      6.415e+00     7.0741e-06     2.7173e-07     9.865482e-01          

      5         0        64      1.260e+02      1.035e+03     4.2969e+01     2.2378e+02      1.063e+01     4.5030e-02     3.1232e-03     9.821593e-01          
      5         1        71      1.260e+02      1.035e+03     4.2982e+01     2.2373e+02      1.066e+01     1.3875e-05     4.1796e-07     9.821593e-01          

      6         0        78      1.251e+02      1.266e+03     5.2903e+01     2.2333e+02      1.624e+01     4.8434e-02     2.9001e-03     9.776190e-01          
      6         1        85      1.250e+02      1.266e+03     5.2909e+01     2.2327e+02      1.629e+01     2.7492e-05     5.7320e-07     9.776190e-01          

      7         0        92      1.241e+02      1.508e+03     6.3447e+01     2.2273e+02      2.359e+01     5.3489e-02     2.6878e-03     9.728519e-01          
      7         1        99      1.241e+02      1.508e+03     6.3443e+01     2.2268e+02      2.368e+01     5.3027e-05     9.1501e-07     9.728519e-01          

      8         0       106      1.230e+02      1.763e+03     7.4699e+01     2.2198e+02      3.325e+01     6.0627e-02     2.4510e-03     9.677721e-01          
      8         1       113      1.230e+02      1.763e+03     7.4681e+01     2.2191e+02      3.338e+01     1.0110e-04     3.1825e-06     9.677721e-01          

      9         0       120      1.219e+02      2.036e+03     8.6801e+01     2.2101e+02      4.605e+01     7.0526e-02     2.1558e-03     9.622763e-01          
      9         1       127      1.219e+02      2.035e+03     8.6764e+01     2.2093e+02      4.626e+01     1.9254e-04     1.5403e-05     9.622763e-01          

     10         0       134      1.207e+02      2.331e+03     9.9930e+01     2.1977e+02      6.327e+01     8.4215e-02     1.8240e-03     9.562360e-01          
     10         1       141      1.206e+02      2.329e+03     9.9865e+01     2.1968e+02      6.360e+01     3.7095e-04     3.8037e-05     9.562360e-01          

     11         0       148      1.192e+02      2.652e+03     1.1430e+02     2.1818e+02      8.692e+01     1.0327e-01     1.8216e-03     9.494849e-01          
     11         1       155      1.192e+02      2.649e+03     1.1419e+02     2.1807e+02      8.744e+01     7.3385e-04     6.6342e-05     9.494849e-01          

     12         0       162      1.176e+02      3.004e+03     1.3014e+02     2.1611e+02      1.203e+02     1.3010e-01     3.2141e-03     9.418003e-01          
     12         1       171      1.175e+02      3.000e+03     1.2996e+02     2.1597e+02      1.211e+02     4.7956e-06     5.2544e-06     9.418003e-01          

     13         0       178      1.157e+02      3.393e+03     1.4772e+02     2.1338e+02      1.687e+02     1.6845e-01     6.6968e-03     9.328732e-01          
     13         1       187      1.155e+02      3.386e+03     1.4744e+02     2.1320e+02      1.700e+02     1.0373e-05     2.3317e-05     9.328732e-01          

     14         0       194      1.135e+02      3.824e+03     1.6729e+02     2.0972e+02      2.415e+02     2.2419e-01     1.3810e-02     9.222590e-01          
     14         1       203      1.132e+02      3.812e+03     1.6682e+02     2.0949e+02      2.438e+02     2.8371e-05     7.2967e-05     9.222590e-01          

     15         0       212      1.103e+02      4.294e+03     1.8889e+02     2.0471e+02      3.550e+02     3.0089e-01     3.1431e-02     9.093441e-01          
     15         1       221      1.103e+02      4.277e+03     1.8814e+02     2.0443e+02      3.588e+02     6.2428e-05     1.0145e-04     9.093441e-01          

     16         0       230      1.066e+02      4.802e+03     2.1253e+02     1.9770e+02      5.410e+02     4.1807e-01     6.3023e-02     8.929971e-01          
     16         1       239      1.065e+02      4.773e+03     2.1127e+02     1.9734e+02      5.472e+02     1.8341e-04     3.5775e-04     8.929971e-01          

     17         0       248      1.017e+02      5.315e+03     2.3709e+02     1.8763e+02      8.583e+02     5.7346e-01     1.3159e-01     8.715705e-01          
     17         1       257      1.015e+02      5.267e+03     2.3499e+02     1.8722e+02      8.672e+02     6.3756e-04     1.2067e-03     8.715705e-01          

     18         0       266      9.497e+01      5.753e+03     2.5958e+02     1.7289e+02      1.419e+03     7.3938e-01     2.9104e-01     8.421610e-01          
     18         1       275      9.461e+01      5.675e+03     2.5622e+02     1.7255e+02      1.426e+03     2.5966e-03     4.1859e-03     8.421610e-01          

     19         0       286      8.545e+01      5.921e+03     2.7244e+02     1.5195e+02      2.369e+03     6.7483e-01     5.9859e-01     8.013743e-01          
     19         1       297      8.506e+01      5.820e+03     2.6800e+02     1.5211e+02      2.355e+03     3.5694e-03     6.5608e-04     8.013743e-01          

     20         0       308      7.484e+01      5.628e+03     2.6715e+02     1.2849e+02      3.570e+03     3.7816e-01     8.8910e-01     7.533395e-01          
     20         1       321      7.406e+01      5.559e+03     2.6398e+02     1.2943e+02      3.510e+03     1.2000e-02     2.5175e-04     7.533395e-01          

     21         0       334      6.493e+01      5.091e+03     2.5113e+02     1.0920e+02      4.573e+03     5.9882e-01     7.5443e-01     7.083054e-01          
     21         1       347      6.414e+01      5.070e+03     2.5003e+02     1.1025e+02      4.505e+03     1.0117e-02     4.4297e-04     7.083054e-01          

     22         0       360      5.578e+01      4.468e+03     2.3143e+02     9.2220e+01      5.392e+03     7.2127e-01     7.1169e-01     6.634084e-01          
     22         1       373      5.457e+01      4.468e+03     2.3115e+02     9.3271e+01      5.325e+03     1.0773e-02     1.0227e-03     6.634084e-01          

     23         0       386      4.668e+01      3.791e+03     2.0916e+02     7.6702e+01      6.019e+03     7.8967e-01     7.2372e-01     6.167122e-01          
     23         1       401      4.459e+01      3.803e+03     2.0927e+02     7.7763e+01      5.955e+03     1.0299e-02     4.4643e-03     6.167122e-01          

     24         0       416      3.615e+01      3.103e+03     1.8562e+02     6.2680e+01      6.420e+03     7.8882e-01     7.3209e-01     5.679603e-01          
     24         1       433      3.366e+01      3.122e+03     1.8591e+02     6.3717e+01      6.362e+03     1.2576e-02     3.7449e-03     5.679603e-01          

     25         0       448      2.586e+01      2.543e+03     1.6537e+02     5.2172e+01      6.557e+03     5.5098e-01     5.3951e-01     5.246708e-01          
     25         1       467      2.253e+01      2.560e+03     1.6564e+02     5.2921e+01      6.521e+03     5.7666e-03     1.4566e-03     5.246708e-01          

     26         0       482      1.493e+01      2.100e+03     1.4842e+02     4.4134e+01      6.539e+03     3.8477e-01     3.8188e-01     4.868661e-01          
     26         1       503      1.118e+01      2.112e+03     1.4863e+02     4.4651e+01      6.518e+03     3.0733e-03     2.2477e-03     4.868661e-01          

     27         0       524      1.506e+00      1.769e+03     1.3507e+02     3.8263e+01      6.438e+03     2.1873e-01     2.3929e-01     4.556559e-01          
     27         1       545      1.082e-01      1.778e+03     1.3519e+02     3.8573e+01      6.426e+03     2.3233e-03     2.2722e-03     4.556559e-01          

     28         0       566     -1.122e+01      1.466e+03     1.2219e+02     3.2822e+01      6.270e+03     2.0265e-01     2.2791e-01     4.243829e-01          
     28         1       591     -1.299e+01      1.474e+03     1.2231e+02     3.3108e+01      6.261e+03     2.3761e-03     9.0268e-04     4.243829e-01          

     29         0       612     -2.563e+01      1.206e+03     1.1046e+02     2.8173e+01      6.047e+03     1.7981e-01     2.0325e-01     3.944582e-01          
     29         1       639     -2.785e+01      1.212e+03     1.1057e+02     2.8419e+01      6.040e+03     1.4477e-03     2.1952e-03     3.944582e-01          

     30         0       662     -4.139e+01      1.001e+03     1.0066e+02     2.4541e+01      5.807e+03     1.2673e-01     1.5096e-01     3.682458e-01          
     30         1       693     -4.307e+01      1.005e+03     1.0074e+02     2.4713e+01      5.803e+03     8.0790e-04     7.8864e-04     3.682458e-01          

     31         0       718     -5.806e+01      8.205e+02     9.1637e+01     2.1335e+01      5.543e+03     1.1901e-01     1.2765e-01     3.430851e-01          
     31         1       749     -5.992e+01      8.236e+02     9.1707e+01     2.1481e+01      5.540e+03     7.9675e-04     1.0789e-03     3.430851e-01          

     32         0       776     -7.603e+01      6.690e+02     8.3686e+01     1.8657e+01      5.272e+03     9.4932e-02     1.0247e-01     3.199386e-01          
     32         1       811     -7.765e+01      6.710e+02     8.3740e+01     1.8768e+01      5.270e+03     5.7026e-04     3.2700e-04     3.199386e-01          

     33         0       838     -9.543e+01      5.319e+02     7.6183e+01     1.6241e+01      4.983e+03     9.8564e-02     9.4082e-02     2.972388e-01          
     33         1       873     -9.738e+01      5.333e+02     7.6239e+01     1.6333e+01      4.982e+03     7.3874e-04     6.9228e-04     2.972388e-01          

     34         0       904     -1.166e+02      4.117e+02     6.9376e+01     1.4140e+01      4.690e+03     8.4354e-02     8.0120e-02     2.757593e-01          
     34         1       943     -1.184e+02      4.126e+02     6.9416e+01     1.4220e+01      4.689e+03     7.3864e-04     4.5309e-04     2.757593e-01          

     35         0       974     -1.402e+02      2.985e+02     6.2737e+01     1.2184e+01      4.375e+03     9.2773e-02     8.2546e-02     2.540175e-01          
     35         1      1013     -1.424e+02      2.989e+02     6.2775e+01     1.2258e+01      4.375e+03     9.1381e-04     8.6599e-04     2.540175e-01          

     36         0      1048     -1.655e+02      1.993e+02     5.6784e+01     1.0515e+01      4.066e+03     7.6031e-02     6.8912e-02     2.337178e-01          
     36         1      1091     -1.676e+02      1.993e+02     5.6807e+01     1.0578e+01      4.066e+03     1.4221e-03     9.6989e-04     2.337178e-01          

     37         0      1126     -1.950e+02      9.902e+01     5.0625e+01     8.8525e+00      3.718e+03     9.5721e-02     8.3176e-02     2.119305e-01          
     37         1      1169     -1.978e+02      9.846e+01     5.0644e+01     8.9264e+00      3.719e+03     2.8397e-03     1.8377e-03     2.119305e-01          

     38         0      1208     -2.254e+02      1.457e+01     4.5399e+01     7.5371e+00      3.399e+03     7.4523e-02     6.1771e-02     1.926911e-01          
     38         1      1251     -2.277e+02      1.375e+01     4.5401e+01     7.5918e+00      3.399e+03     3.5755e-03     2.6527e-03     1.926911e-01          

     39         0      1290     -2.590e+02     -6.826e+01     4.0234e+01     6.2861e+00      3.060e+03     8.3432e-02     6.5194e-02     1.730045e-01          
     39         1      1333     -2.617e+02     -6.959e+01     4.0221e+01     6.3407e+00      3.061e+03     6.1917e-03     4.8490e-03     1.730045e-01          

     40         0      1376     -2.975e+02     -1.504e+02     3.5126e+01     5.1165e+00      2.700e+03     9.8161e-02     7.9965e-02     1.528207e-01          
     40         1      1419     -3.007e+02     -1.525e+02     3.5095e+01     5.1721e+00      2.700e+03     8.5738e-03     6.6000e-03     1.528207e-01          

     41         0      1462     -3.409e+02     -2.318e+02     3.0136e+01     4.0423e+00      2.321e+03     1.2522e-01     1.0370e-01     1.323702e-01          
     41         1      1505     -3.448e+02     -2.346e+02     3.0081e+01     4.1025e+00      2.322e+03     1.1579e-02     1.0023e-02     1.323702e-01          

     42         0      1548     -3.879e+02     -3.095e+02     2.5469e+01     3.1123e+00      1.941e+03     1.5894e-01     1.3158e-01     1.125846e-01          
     42         1      1591     -3.924e+02     -3.131e+02     2.5386e+01     3.1730e+00      1.941e+03     1.6439e-02     1.3399e-02     1.125846e-01          

     43         0      1677     -4.369e+02     -3.825e+02     2.1205e+01     2.3295e+00      1.568e+03     2.0122e-01     1.5557e-01     9.396701e-02          
     43         1      1720     -4.416e+02     -3.865e+02     2.1097e+01     2.3895e+00      1.568e+03     3.2301e-02     2.4587e-02     9.396701e-02          

     44         0      1806     -4.848e+02     -4.479e+02     1.7482e+01     1.7147e+00      1.222e+03     2.3710e-01     1.6607e-01     7.735352e-02          
     44         1      1849     -4.894e+02     -4.520e+02     1.7357e+01     1.7651e+00      1.222e+03     4.8890e-02     3.9179e-02     7.735352e-02          

     45         0      1935     -5.266e+02     -5.011e+02     1.4531e+01     1.2842e+00      9.343e+02     2.3203e-01     1.5568e-01     6.408942e-02          
     45         1      1978     -5.303e+02     -5.044e+02     1.4420e+01     1.3220e+00      9.338e+02     5.8803e-02     4.8644e-02     6.408942e-02          

     46         0      2064     -5.616e+02     -5.436e+02     1.2187e+01     9.7514e-01      6.953e+02     2.1947e-01     1.4615e-01     5.348477e-02          
     46         1      2107     -5.646e+02     -5.463e+02     1.2092e+01     1.0056e+00      6.949e+02     6.4503e-02     5.5049e-02     5.348477e-02          

     47         0      2193     -5.908e+02     -5.780e+02     1.0288e+01     7.4958e-01      4.942e+02     2.0262e-01     1.3718e-01     4.487213e-02          
     47         1      2236     -5.934e+02     -5.802e+02     1.0204e+01     7.7452e-01      4.940e+02     6.5329e-02     5.9212e-02     4.487213e-02          

     48         0      2322     -6.153e+02     -6.061e+02     8.7068e+00     5.8119e-01      3.213e+02     1.8670e-01     1.2765e-01     3.770571e-02          
     48         1      2365     -6.176e+02     -6.080e+02     8.6329e+00     6.0477e-01      3.213e+02     6.2179e-02     6.1155e-02     3.770571e-02          

     49         0      2451     -6.363e+02     -6.296e+02     7.3569e+00     4.5082e-01      1.696e+02     1.7011e-01     1.1836e-01     3.161396e-02          
     49         1      2494     -6.380e+02     -6.312e+02     7.2928e+00     4.6469e-01      1.697e+02     6.0148e-02     7.0356e-02     3.161396e-02          

     50         0      2580     -6.547e+02     -6.500e+02     6.1417e+00     3.4426e-01      2.883e+01     1.6622e-01     1.1991e-01     2.613495e-02          
     50         1      2623     -6.562e+02     -6.513e+02     6.0812e+00     3.5407e-01      2.900e+01     6.1805e-02     7.9284e-02     2.613495e-02          

     51         0      2709     -6.709e+02     -6.677e+02     5.0411e+00     2.6311e-01     -1.017e+02     1.5926e-01     1.2066e-01     2.121117e-02          
     51         1      2752     -6.722e+02     -6.688e+02     4.9832e+00     2.6976e-01     -1.014e+02     6.5283e-02     8.2938e-02     2.121117e-02          

     52         0      2838     -6.851e+02     -6.829e+02     4.0431e+00     2.0521e-01     -2.219e+02     1.4817e-01     1.1869e-01     1.681622e-02          
     52         1      2881     -6.860e+02     -6.836e+02     3.9948e+00     2.0746e-01     -2.216e+02     6.7064e-02     8.6350e-02     1.681622e-02          

     53         0      2967     -6.973e+02     -6.960e+02     3.1274e+00     1.6719e-01     -3.356e+02     1.4729e-01     1.2838e-01     1.279042e-02          
     53         1      3010     -6.980e+02     -6.964e+02     3.0848e+00     1.6501e-01     -3.353e+02     8.0502e-02     8.7907e-02     1.279042e-02          

     54         0      3096     -7.077e+02     -7.068e+02     2.3093e+00     1.4611e-01     -4.404e+02     1.6059e-01     1.2692e-01     9.200062e-03          
     54         1      3139     -7.082e+02     -7.071e+02     2.2601e+00     1.3826e-01     -4.403e+02     8.6267e-02     9.9318e-02     9.200062e-03          

     55         0      3225     -7.160e+02     -7.155e+02     1.5792e+00     1.5537e-01     -5.357e+02     1.6714e-01     1.4808e-01     6.042438e-03          
     55         1      3268     -7.166e+02     -7.160e+02     1.5247e+00     1.3643e-01     -5.357e+02     9.1949e-02     1.1948e-01     6.042438e-03          

     56         0      3354     -7.224e+02     -7.221e+02     9.6387e-01     1.8973e-01     -6.198e+02     1.9845e-01     1.8631e-01     3.348631e-03          
     56         1      3397     -7.234e+02     -7.229e+02     8.8478e-01     1.5882e-01     -6.201e+02     1.0631e-01     1.5204e-01     3.348631e-03          

     57         0      3483     -7.268e+02     -7.264e+02     5.0510e-01     2.0352e-01     -6.830e+02     2.1171e-01     2.0077e-01     1.387793e-03          
     57         1      3526     -7.279e+02     -7.276e+02     4.0729e-01     1.9510e-01     -6.839e+02     1.0272e-01     1.9301e-01     1.387793e-03          

     58         0      3612     -7.295e+02     -7.287e+02     2.3923e-01     2.2767e-01     -7.271e+02     2.3001e-01     2.2749e-01     4.990366e-05          
     58         1      3655     -7.306e+02     -7.300e+02     1.4514e-01     2.3610e-01     -7.284e+02     1.3720e-01     2.3596e-01     4.990366e-05          

     59         0      3741     -7.307e+02     -7.300e+02     1.3128e-01     2.3750e-01     -7.300e+02     1.3128e-01     2.3750e-01     -6.776264e-21          
     59         1      3784     -7.308e+02     -7.290e+02     1.9511e-01     2.1467e-01     -7.290e+02     1.9511e-01     2.1467e-01     -6.776264e-21          
     59         2      3827     -7.311e+02     -7.293e+02     9.1919e-02     2.1860e-01     -7.293e+02     9.1919e-02     2.1860e-01     -6.776264e-21          
     59         3      3870     -7.311e+02     -7.294e+02     7.8403e-02     2.1377e-01     -7.294e+02     7.8403e-02     2.1377e-01     -6.776264e-21          
     59         4      3913     -7.311e+02     -7.293e+02     7.2950e-02     2.1060e-01     -7.293e+02     7.2950e-02     2.1060e-01     -6.776264e-21          
     59         5      3956     -7.309e+02     -7.289e+02     7.2609e-02     2.0148e-01     -7.289e+02     7.2609e-02     2.0148e-01     -6.776264e-21          
     59         6      3999     -7.308e+02     -7.286e+02     6.5045e-02     1.9777e-01     -7.286e+02     6.5045e-02     1.9777e-01     -6.776264e-21          
     59         7      4042     -7.307e+02     -7.285e+02     6.1316e-02     1.9581e-01     -7.285e+02     6.1316e-02     1.9581e-01     -6.776264e-21          
     59         8      4085     -7.306e+02     -7.283e+02     5.6506e-02     1.9244e-01     -7.283e+02     5.6506e-02     1.9244e-01     -6.776264e-21          
     59         9      4128     -7.306e+02     -7.282e+02     5.7975e-02     1.8903e-01     -7.282e+02     5.7975e-02     1.8903e-01     -6.776264e-21          
     59        10      4171     -7.305e+02     -7.281e+02     5.5491e-02     1.8759e-01     -7.281e+02     5.5491e-02     1.8759e-01     -6.776264e-21          
     59        11      4214     -7.305e+02     -7.281e+02     6.1529e-02     1.8178e-01     -7.281e+02     6.1529e-02     1.8178e-01     -6.776264e-21          
     59        12      4257     -7.306e+02     -7.282e+02     5.9656e-02     1.8013e-01     -7.282e+02     5.9656e-02     1.8013e-01     -6.776264e-21          
     59        13      4300     -7.306e+02     -7.282e+02     6.0063e-02     1.7898e-01     -7.282e+02     6.0063e-02     1.7898e-01     -6.776264e-21          
     59        14      4343     -7.306e+02     -7.283e+02     5.8642e-02     1.7828e-01     -7.283e+02     5.8642e-02     1.7828e-01     -6.776264e-21          
     59        15      4386     -7.306e+02     -7.283e+02     5.7004e-02     1.7753e-01     -7.283e+02     5.7004e-02     1.7753e-01     -6.776264e-21          
     59        16      4429     -7.305e+02     -7.281e+02     5.8645e-02     1.7492e-01     -7.281e+02     5.8645e-02     1.7492e-01     -6.776264e-21          
     59        17      4472     -7.305e+02     -7.282e+02     5.4127e-02     1.7549e-01     -7.282e+02     5.4127e-02     1.7549e-01     -6.776264e-21          
     59        18      4515     -7.305e+02     -7.281e+02     5.6989e-02     1.7390e-01     -7.281e+02     5.6989e-02     1.7390e-01     -6.776264e-21          
     59        19      4558     -7.304e+02     -7.280e+02     5.5086e-02     1.7377e-01     -7.280e+02     5.5086e-02     1.7377e-01     -6.776264e-21          
     59        20      4601     -7.304e+02     -7.280e+02     5.3813e-02     1.7378e-01     -7.280e+02     5.3813e-02     1.7378e-01     -6.776264e-21          
     59        21      4644     -7.304e+02     -7.279e+02     5.4112e-02     1.7339e-01     -7.279e+02     5.4112e-02     1.7339e-01     -6.776264e-21          
     59        22      4687     -7.303e+02     -7.277e+02     5.2781e-02     1.7330e-01     -7.277e+02     5.2781e-02     1.7330e-01     -6.776264e-21          
     59        23      4730     -7.303e+02     -7.276e+02     5.1515e-02     1.7270e-01     -7.276e+02     5.1515e-02     1.7270e-01     -6.776264e-21          
     59        24      4773     -7.303e+02     -7.277e+02     5.0410e-02     1.7228e-01     -7.277e+02     5.0410e-02     1.7228e-01     -6.776264e-21          
     59        25      4816     -7.303e+02     -7.276e+02     5.1015e-02     1.7155e-01     -7.276e+02     5.1015e-02     1.7155e-01     -6.776264e-21          
     59        26      4859     -7.303e+02     -7.276e+02     5.0430e-02     1.7135e-01     -7.276e+02     5.0430e-02     1.7135e-01     -6.776264e-21          
     59        27      4902     -7.302e+02     -7.276e+02     5.0534e-02     1.7110e-01     -7.276e+02     5.0534e-02     1.7110e-01     -6.776264e-21          
     59        28      4945     -7.302e+02     -7.274e+02     4.9741e-02     1.7000e-01     -7.274e+02     4.9741e-02     1.7000e-01     -6.776264e-21          
     59        29      4988     -7.302e+02     -7.273e+02     4.6718e-02     1.6993e-01     -7.273e+02     4.6718e-02     1.6993e-01     -6.776264e-21          
     59        30      5031     -7.301e+02     -7.272e+02     4.7770e-02     1.6927e-01     -7.272e+02     4.7770e-02     1.6927e-01     -6.776264e-21          
     59        31      5074     -7.301e+02     -7.272e+02     4.6300e-02     1.6946e-01     -7.272e+02     4.6300e-02     1.6946e-01     -6.776264e-21          
     59        32      5117     -7.301e+02     -7.271e+02     4.6585e-02     1.6924e-01     -7.271e+02     4.6585e-02     1.6924e-01     -6.776264e-21          
     59        33      5160     -7.301e+02     -7.271e+02     4.5953e-02     1.6932e-01     -7.271e+02     4.5953e-02     1.6932e-01     -6.776264e-21          
     59        34      5203     -7.300e+02     -7.270e+02     4.6734e-02     1.6842e-01     -7.270e+02     4.6734e-02     1.6842e-01     -6.776264e-21          
     59        35      5246     -7.300e+02     -7.269e+02     4.5608e-02     1.6792e-01     -7.269e+02     4.5608e-02     1.6792e-01     -6.776264e-21          
     59        36      5289     -7.300e+02     -7.268e+02     4.5556e-02     1.6781e-01     -7.268e+02     4.5556e-02     1.6781e-01     -6.776264e-21          
     59        37      5332     -7.300e+02     -7.269e+02     4.4132e-02     1.6808e-01     -7.269e+02     4.4132e-02     1.6808e-01     -6.776264e-21          
     59        38      5375     -7.300e+02     -7.268e+02     4.5006e-02     1.6773e-01     -7.268e+02     4.5006e-02     1.6773e-01     -6.776264e-21          
     59        39      5418     -7.300e+02     -7.268e+02     4.4116e-02     1.6794e-01     -7.268e+02     4.4116e-02     1.6794e-01     -6.776264e-21          
     59        40      5461     -7.300e+02     -7.268e+02     4.4851e-02     1.6767e-01     -7.268e+02     4.4851e-02     1.6767e-01     -6.776264e-21          
     59        41      5504     -7.299e+02     -7.268e+02     4.4213e-02     1.6776e-01     -7.268e+02     4.4213e-02     1.6776e-01     -6.776264e-21          
     59        42      5547     -7.300e+02     -7.268e+02     4.4049e-02     1.6775e-01     -7.268e+02     4.4049e-02     1.6775e-01     -6.776264e-21          
     59        43      5590     -7.300e+02     -7.268e+02     4.4000e-02     1.6773e-01     -7.268e+02     4.4000e-02     1.6773e-01     -6.776264e-21          
     59        44      5633     -7.299e+02     -7.268e+02     4.4428e-02     1.6756e-01     -7.268e+02     4.4428e-02     1.6756e-01     -6.776264e-21          
     59        45      5676     -7.299e+02     -7.267e+02     4.4155e-02     1.6758e-01     -7.267e+02     4.4155e-02     1.6758e-01     -6.776264e-21          
     59        46      5719     -7.299e+02     -7.267e+02     4.5475e-02     1.6681e-01     -7.267e+02     4.5475e-02     1.6681e-01     -6.776264e-21          
     59        47      5762     -7.299e+02     -7.266e+02     4.3829e-02     1.6703e-01     -7.266e+02     4.3829e-02     1.6703e-01     -6.776264e-21          
     59        48      5805     -7.299e+02     -7.266e+02     4.3554e-02     1.6708e-01     -7.266e+02     4.3554e-02     1.6708e-01     -6.776264e-21          
     59        49      5848     -7.299e+02     -7.266e+02     4.3815e-02     1.6701e-01     -7.266e+02     4.3815e-02     1.6701e-01     -6.776264e-21          
