# Kona Param. Contn. convergence history (opt tol = 4.772971e-04 | feas tol = 1.000000e-06)
# outer     inner      cost      objective     lagrangian       opt norm      feas norm       homotopy        hom opt       hom feas     mu             
      0         0        18      2.647e+02      2.647e+02     4.7730e+00     0.0000e+00     0.0000e+00     0.0000e+00     0.0000e+00     1.0000     

      1         0        33      2.644e+02      2.644e+02     4.7730e+00     6.9208e-02      2.712e+00     5.0176e-04     7.0959e-04     9.897470e-01          
      1         1       100      2.644e+02      2.644e+02     4.7719e+00     6.9873e-02      2.712e+00     1.7224e-11     7.0094e-14     9.897470e-01          

      2         0       119      2.640e+02      2.640e+02     4.7704e+00     2.0813e-01      8.025e+00     1.9829e-03     4.8976e-03     9.696380e-01          
      2         1       186      2.639e+02      2.639e+02     4.7638e+00     2.0993e-01      8.025e+00     7.5176e-09     2.7395e-12     9.696380e-01          

      3         0       215      2.630e+02      2.630e+02     4.7569e+00     4.8230e-01      1.822e+01     8.8203e-03     2.4852e-02     9.309178e-01          
      3         1       283      2.630e+02      2.630e+02     4.7257e+00     4.8244e-01      1.823e+01     9.5893e-07     6.5464e-11     9.309178e-01          

      4         0       312      2.618e+02      2.619e+02     4.7222e+00     7.9347e-01      2.997e+01     3.0598e-02     6.4788e-02     8.861582e-01          
      4         1       381      2.618e+02      2.619e+02     4.6580e+00     7.7793e-01      2.997e+01     1.2307e-05     1.0432e-10     8.861582e-01          

      5         0       410      2.609e+02      2.610e+02     4.6913e+00     9.8283e-01      3.871e+01     7.8892e-02     1.0220e-01     8.527035e-01          
      5         1       479      2.609e+02      2.611e+02     4.6116e+00     9.6576e-01      3.871e+01     2.2408e-05     2.0525e-11     8.527035e-01          

      6         0       508      2.601e+02      2.602e+02     4.6750e+00     1.1180e+00      4.656e+01     1.4334e-01     1.3956e-01     8.225447e-01          
      6         1       576      2.601e+02      2.603e+02     4.5903e+00     1.1004e+00      4.658e+01     3.7594e-05     3.5715e-11     8.225447e-01          

      7         0       605      2.592e+02      2.594e+02     4.6732e+00     1.2221e+00      5.478e+01     2.3002e-01     1.7916e-01     7.909659e-01          
      7         1       673      2.592e+02      2.596e+02     4.6008e+00     1.2011e+00      5.481e+01     7.0950e-05     6.0613e-11     7.909659e-01          

      8         0       702      2.582e+02      2.584e+02     4.6929e+00     1.2927e+00      6.424e+01     3.5259e-01     2.2157e-01     7.545862e-01          
      8         1       770      2.581e+02      2.587e+02     4.6599e+00     1.2655e+00      6.428e+01     1.4694e-04     1.9415e-10     7.545862e-01          

      9         0       799      2.568e+02      2.572e+02     4.7487e+00     1.3137e+00      7.622e+01     5.3453e-01     2.6567e-01     7.085479e-01          
      9         1       868      2.567e+02      2.574e+02     4.7954e+00     1.2767e+00      7.630e+01     3.4489e-04     9.3057e-10     7.085479e-01          

     10         0       906      2.547e+02      2.552e+02     4.8619e+00     1.2455e+00      9.286e+01     8.1427e-01     3.0318e-01     6.449004e-01          
     10         1       975      2.546e+02      2.554e+02     5.0377e+00     1.1978e+00      9.301e+01     9.3709e-04     1.1812e-08     6.449004e-01          

     11         0      1014      2.518e+02      2.522e+02     4.9966e+00     1.0588e+00      1.127e+02     1.1666e+00     3.0607e-01     5.695653e-01          
     11         1      1084      2.514e+02      2.522e+02     5.3130e+00     1.0298e+00      1.130e+02     1.8700e-03     7.9303e-08     5.695653e-01          

     12         0      1123      2.476e+02      2.480e+02     5.0970e+00     8.3177e-01      1.340e+02     1.5265e+00     2.7708e-01     4.896288e-01          
     12         1      1193      2.470e+02      2.477e+02     5.5334e+00     8.2829e-01      1.344e+02     3.4337e-03     3.2406e-07     4.896288e-01          

     13         0      1232      2.420e+02      2.423e+02     5.1478e+00     6.3627e-01      1.546e+02     1.8477e+00     2.3562e-01     4.125256e-01          
     13         1      1302      2.410e+02      2.416e+02     5.6720e+00     6.4496e-01      1.552e+02     5.8672e-03     9.2803e-07     4.125256e-01          

     14         0      1341      2.347e+02      2.350e+02     5.1621e+00     4.9243e-01      1.728e+02     2.1138e+00     1.9537e-01     3.444499e-01          
     14         1      1411      2.335e+02      2.339e+02     5.7440e+00     5.0175e-01      1.737e+02     8.5894e-03     1.9796e-06     3.444499e-01          

     15         0      1450      2.260e+02      2.262e+02     5.1587e+00     3.9119e-01      1.881e+02     2.3524e+00     1.6267e-01     2.879987e-01          
     15         1      1520      2.245e+02      2.249e+02     5.7719e+00     3.9767e-01      1.892e+02     1.0864e-02     3.3629e-06     2.879987e-01          

     16         0      1551      2.159e+02      2.161e+02     5.1395e+00     3.1943e-01      2.005e+02     2.5477e+00     1.3531e-01     2.424974e-01          
     16         1      1621      2.143e+02      2.147e+02     5.7713e+00     3.2336e-01      2.018e+02     1.2328e-02     4.9845e-06     2.424974e-01          

     17         0      1661      2.047e+02      2.049e+02     5.1042e+00     2.6705e-01      2.105e+02     2.6929e+00     1.1193e-01     2.057812e-01          
     17         1      1731      2.030e+02      2.033e+02     5.7497e+00     2.6958e-01      2.119e+02     1.3178e-02     7.0857e-06     2.057812e-01          

     18         0      1771      1.922e+02      1.924e+02     5.0534e+00     2.2809e-01      2.184e+02     2.8001e+00     9.2355e-02     1.757232e-01          
     18         1      1841      1.905e+02      1.907e+02     5.7088e+00     2.2980e-01      2.199e+02     1.3712e-02     1.0199e-05     1.757232e-01          

     19         0      1881      1.784e+02      1.786e+02     4.9851e+00     1.9860e-01      2.247e+02     2.8766e+00     7.5962e-02     1.506983e-01          
     19         1      1951      1.767e+02      1.769e+02     5.6465e+00     1.9987e-01      2.262e+02     1.4001e-02     1.5129e-05     1.506983e-01          

     20         0      1991      1.633e+02      1.635e+02     4.8947e+00     1.7608e-01      2.292e+02     2.9261e+00     6.2156e-02     1.294913e-01          
     20         1      2061      1.615e+02      1.617e+02     5.5576e+00     1.7710e-01      2.308e+02     1.4026e-02     2.3329e-05     1.294913e-01          

     21         0      2101      1.466e+02      1.468e+02     4.7742e+00     1.5883e-01      2.318e+02     2.9491e+00     5.0418e-02     1.111495e-01          
     21         1      2171      1.448e+02      1.450e+02     5.4323e+00     1.5972e-01      2.334e+02     1.3712e-02     3.7679e-05     1.111495e-01          

     22         0      2211      1.282e+02      1.284e+02     4.6099e+00     1.4571e-01      2.319e+02     2.9429e+00     4.0380e-02     9.485146e-02          
     22         1      2281      1.264e+02      1.266e+02     5.2537e+00     1.4648e-01      2.334e+02     1.2913e-02     6.4138e-05     9.485146e-02          

     23         0      2321      1.076e+02      1.078e+02     4.3759e+00     1.3598e-01      2.282e+02     2.9011e+00     3.2475e-02     7.975524e-02          
     23         1      2391      1.059e+02      1.062e+02     4.9896e+00     1.3633e-01      2.294e+02     1.1299e-02     1.1371e-04     7.975524e-02          

     24         0      2431      8.390e+01      8.412e+01     4.0136e+00     1.3142e-01      2.174e+02     2.8091e+00     3.6762e-02     6.467884e-02          
     24         1      2501      8.262e+01      8.286e+01     4.5661e+00     1.2790e-01      2.181e+02     7.9234e-03     1.7697e-04     6.467884e-02          

     25         0      2542      5.385e+01      5.412e+01     3.3403e+00     2.2177e-01      1.881e+02     2.6343e+00     1.7792e-01     4.678991e-02          
     25         1      2615      5.417e+01      5.444e+01     3.7449e+00     1.1668e-01      1.880e+02     2.0354e-03     7.6638e-05     4.678991e-02          

     26         0      2671      8.078e+00      1.046e+01     3.8349e+00     2.5760e+01      8.128e+01     4.5154e+00     2.5336e+01     1.641240e-02          
     26         1      2806      1.460e+01      1.505e+01     4.2933e+00     1.3527e+01      8.206e+01     4.6486e+00     1.3305e+01     1.641240e-02          

     27         0      3162      1.571e+01      1.631e+01     1.3241e+00     2.8967e+00      7.768e+01     1.0157e+00     2.8503e+00     1.508090e-02          
     27         1      3285      1.745e+01      1.785e+01     1.3858e+00     1.1511e+00      7.819e+01     4.7069e-01     1.1299e+00     1.508090e-02          

     28         0      3502      1.710e+01      1.729e+01     1.1028e+00     8.8280e-02      7.321e+01     7.8874e-01     6.8892e-02     1.391293e-02          
     28         1      3625      1.728e+01      1.745e+01     1.2687e+00     5.0050e-02      7.329e+01     3.4452e-03     6.0097e-03     1.391293e-02          

     29         0      3706      1.584e+01      1.600e+01     9.2029e-01     9.8037e-02      6.352e+01     7.2679e-01     8.6351e-02     1.169117e-02          
     29         1      3813      1.590e+01      1.605e+01     1.0680e+00     4.1089e-02      6.354e+01     2.3331e-03     5.9330e-04     1.169117e-02          

     30         0      3906      1.468e+01      1.480e+01     7.5571e-01     9.7860e-02      5.420e+01     6.1353e-01     9.0148e-02     9.593387e-03          
     30         1      4026      1.473e+01      1.485e+01     8.8230e-01     3.3185e-02      5.423e+01     5.2695e-03     8.0954e-04     9.593387e-03          

     31         0      4130      1.377e+01      1.387e+01     6.1967e-01     8.4831e-02      4.615e+01     5.0576e-01     7.9274e-02     7.794859e-03          
     31         1      4259      1.380e+01      1.389e+01     7.1558e-01     2.6377e-02      4.616e+01     1.9306e-03     5.0000e-04     7.794859e-03          

     32         0      4374      1.304e+01      1.311e+01     4.9615e-01     7.2800e-02      3.925e+01     4.1186e-01     6.8870e-02     6.269195e-03          
     32         1      4513      1.306e+01      1.312e+01     5.8171e-01     2.0645e-02      3.926e+01     8.9066e-03     3.7037e-04     6.269195e-03          

     33         0      4649      1.241e+01      1.246e+01     3.9626e-01     6.9535e-02      3.308e+01     3.3273e-01     6.7062e-02     4.915152e-03          
     33         1      4813      1.241e+01      1.246e+01     4.5047e-01     1.5714e-02      3.307e+01     5.6768e-03     2.4898e-04     4.915152e-03          

     34         0      4971      1.187e+01      1.191e+01     2.9619e-01     6.3169e-02      2.773e+01     2.6090e-01     6.1622e-02     3.752756e-03          
     34         1      5158      1.187e+01      1.191e+01     3.5026e-01     1.1570e-02      2.773e+01     7.1547e-03     2.7140e-04     3.752756e-03          

     35         0      5351      1.142e+01      1.145e+01     2.2714e-01     5.5908e-02      2.320e+01     2.0051e-01     5.4976e-02     2.774648e-03          
     35         1      5570      1.142e+01      1.144e+01     2.5264e-01     8.2250e-03      2.319e+01     7.8125e-03     2.8026e-04     2.774648e-03          

     36         0      5806      1.111e+01      1.113e+01     1.6489e-01     3.2440e-02      2.007e+01     1.4788e-01     3.1692e-02     2.105011e-03          
     36         1      6059      1.111e+01      1.113e+01     1.9809e-01     5.9933e-03      2.007e+01     6.2297e-03     4.9792e-04     2.105011e-03          

     37         0      6298      1.088e+01      1.090e+01     1.3531e-01     2.2713e-02      1.773e+01     1.1326e-01     2.2173e-02     1.605011e-03          
     37         1      6571      1.088e+01      1.089e+01     1.4842e-01     4.3844e-03      1.773e+01     4.8136e-04     1.3354e-04     1.605011e-03          

     38         0      6810      1.063e+01      1.063e+01     9.3380e-02     3.7346e-02      1.512e+01     8.6854e-02     3.7158e-02     1.049832e-03          
     38         1      7086      1.062e+01      1.063e+01     9.6847e-02     2.7896e-03      1.511e+01     1.0149e-03     6.8946e-04     1.049832e-03          

     39         0      7327      1.041e+01      1.042e+01     5.7274e-02     3.5304e-02      1.305e+01     5.6886e-02     3.5215e-02     6.157873e-04          
     39         1      7607      1.041e+01      1.041e+01     5.8291e-02     5.4135e-03      1.305e+01     3.2810e-03     5.0815e-03     6.157873e-04          

     40         0      8130      1.024e+01      1.024e+01     3.2414e-02     3.1153e-02      1.144e+01     3.3590e-02     3.1127e-02     2.784921e-04          
     40         1      8410      1.023e+01      1.023e+01     2.5023e-02     4.4462e-03      1.143e+01     1.5517e-03     4.3402e-03     2.784921e-04          

     41         0      8934      1.013e+01      1.014e+01     1.9640e-02     1.3605e-02      1.055e+01     1.8266e-02     1.3584e-02     9.712508e-05          
     41         1      9212      1.012e+01      1.013e+01     9.9918e-03     2.0891e-03      1.055e+01     1.6752e-03     1.9301e-03     9.712508e-05          

     42         0      9748      1.011e+01      1.011e+01     7.5242e-03     2.6560e-03      1.027e+01     8.8613e-03     2.5848e-03     3.761798e-05          
     42         1     10039      1.010e+01      1.011e+01     4.5702e-03     2.9841e-03      1.027e+01     2.3728e-03     2.9187e-03     3.761798e-05          

     43         0     10580      1.009e+01      1.010e+01     3.7121e-03     3.8555e-03      1.010e+01     3.7121e-03     3.8555e-03     0.000000e+00          
     43         1     10886      1.010e+01      1.010e+01     3.5252e-03     2.6510e-03      1.010e+01     3.5252e-03     2.6510e-03     0.000000e+00          
     43         2     11192      1.010e+01      1.011e+01     3.6421e-03     2.3319e-03      1.011e+01     3.6421e-03     2.3319e-03     0.000000e+00          
     43         3     11491      1.010e+01      1.011e+01     3.6055e-03     2.3472e-03      1.011e+01     3.6055e-03     2.3472e-03     0.000000e+00          
     43         4     11788      1.010e+01      1.011e+01     3.6143e-03     2.3316e-03      1.011e+01     3.6143e-03     2.3316e-03     0.000000e+00          
     43         5     12085      1.010e+01      1.011e+01     3.6144e-03     2.3316e-03      1.011e+01     3.6144e-03     2.3316e-03     0.000000e+00          
     43         6     12382      1.010e+01      1.011e+01     3.6148e-03     2.3310e-03      1.011e+01     3.6148e-03     2.3310e-03     0.000000e+00          
     43         7     12679      1.010e+01      1.011e+01     3.6149e-03     2.3309e-03      1.011e+01     3.6149e-03     2.3309e-03     0.000000e+00          
     43         8     12976      1.010e+01      1.011e+01     3.6149e-03     2.3308e-03      1.011e+01     3.6149e-03     2.3308e-03     0.000000e+00          
     43         9     13273      1.010e+01      1.011e+01     3.6149e-03     2.3308e-03      1.011e+01     3.6149e-03     2.3308e-03     0.000000e+00          
