# Kona Param. Contn. convergence history (opt tol = 4.772971e-04 | feas tol = 1.000000e-06)
# outer     inner      cost      objective     lagrangian       opt norm      feas norm       homotopy        hom opt       hom feas     mu             
      0         0        18      2.647e+02      2.647e+02     4.7730e+00     0.0000e+00     0.0000e+00     0.0000e+00     0.0000e+00     1.0000     

      1         0        33      2.644e+02      2.644e+02     4.7730e+00     6.9208e-02      2.712e+00     5.0176e-04     7.0959e-04     9.897470e-01          
      1         1        62      2.644e+02      2.644e+02     4.7719e+00     6.9873e-02      2.712e+00     9.2967e-10     2.2776e-08     9.897470e-01          

      2         0        90      2.640e+02      2.640e+02     4.7704e+00     2.0813e-01      8.025e+00     1.9829e-03     4.8981e-03     9.696380e-01          
      2         1       125      2.639e+02      2.639e+02     4.7638e+00     2.0993e-01      8.025e+00     7.2214e-09     3.5286e-11     9.696380e-01          

      3         0       154      2.630e+02      2.630e+02     4.7569e+00     4.8230e-01      1.822e+01     8.8204e-03     2.4852e-02     9.309178e-01          
      3         1       190      2.630e+02      2.630e+02     4.7257e+00     4.8244e-01      1.823e+01     1.2755e-06     6.9841e-08     9.309178e-01          

      4         0       225      2.612e+02      2.612e+02     4.7087e+00     9.8176e-01      3.704e+01     5.1269e-02     1.0199e-01     8.590624e-01          
      4         1       268      2.611e+02      2.612e+02     4.6191e+00     9.3294e-01      3.705e+01     6.8452e-05     2.9874e-07     8.590624e-01          

      5         0       309      2.579e+02      2.582e+02     4.6913e+00     1.5595e+00      6.784e+01     2.9631e-01     2.9376e-01     7.403326e-01          
      5         1       352      2.577e+02      2.583e+02     4.6960e+00     1.2773e+00      6.800e+01     1.6837e-03     1.2103e-05     7.403326e-01          

      6         0       396      2.544e+02      2.549e+02     4.9099e+00     1.3347e+00      9.641e+01     8.2149e-01     3.3946e-01     6.307125e-01          
      6         1       439      2.540e+02      2.548e+02     5.0939e+00     1.1709e+00      9.676e+01     3.0672e-03     6.1712e-05     6.307125e-01          

      7         0       490      2.501e+02      2.506e+02     5.0720e+00     9.6654e-01      1.230e+02     1.3238e+00     3.0110e-01     5.302585e-01          
      7         1       534      2.494e+02      2.502e+02     5.4326e+00     9.3105e-01      1.235e+02     4.0172e-03     8.6804e-05     5.302585e-01          

      8         0       585      2.444e+02      2.447e+02     5.1435e+00     6.9910e-01      1.474e+02     1.7266e+00     2.5022e-01     4.389021e-01          
      8         1       636      2.433e+02      2.439e+02     5.6329e+00     7.0558e-01      1.480e+02     6.3280e-03     9.3646e-06     4.389021e-01          

      9         0       695      2.370e+02      2.373e+02     5.1635e+00     5.2549e-01      1.680e+02     2.0381e+00     2.0517e-01     3.619577e-01          
      9         1       739      2.357e+02      2.362e+02     5.7301e+00     5.3682e-01      1.689e+02     9.0125e-03     5.2992e-05     3.619577e-01          

     10         0       798      2.283e+02      2.285e+02     5.1610e+00     4.1189e-01      1.847e+02     2.2917e+00     1.6953e-01     3.005017e-01          
     10         1       842      2.268e+02      2.272e+02     5.7685e+00     4.1960e-01      1.858e+02     1.1035e-02     3.7885e-05     3.005017e-01          

     11         0       901      2.183e+02      2.186e+02     5.1456e+00     3.3360e-01      1.979e+02     2.5069e+00     1.4113e-01     2.520130e-01          
     11         1       951      2.168e+02      2.171e+02     5.7736e+00     3.3820e-01      1.991e+02     1.2352e-02     4.2045e-05     2.520130e-01          

     12         0      1010      2.073e+02      2.075e+02     5.1135e+00     2.7740e-01      2.084e+02     2.6638e+00     1.1681e-01     2.133556e-01          
     12         1      1068      2.057e+02      2.059e+02     5.7562e+00     2.8022e-01      2.098e+02     1.3128e-02     1.0078e-05     2.133556e-01          

     13         0      1126      1.951e+02      1.953e+02     5.0662e+00     2.3584e-01      2.168e+02     2.7790e+00     9.6420e-02     1.819318e-01          
     13         1      1183      1.934e+02      1.936e+02     5.7196e+00     2.3769e-01      2.183e+02     1.3648e-02     2.8343e-05     1.819318e-01          

     14         0      1242      1.816e+02      1.818e+02     5.0020e+00     2.0449e-01      2.234e+02     2.8620e+00     7.9366e-02     1.558964e-01          
     14         1      1298      1.799e+02      1.801e+02     5.6625e+00     2.0583e-01      2.250e+02     1.3967e-02     8.2312e-05     1.558964e-01          

     15         0      1357      1.668e+02      1.670e+02     4.9171e+00     1.8058e-01      2.283e+02     2.9174e+00     6.5030e-02     1.339284e-01          
     15         1      1414      1.650e+02      1.652e+02     5.5801e+00     1.8164e-01      2.299e+02     1.4048e-02     2.5022e-04     1.339284e-01          

     16         0      1472      1.505e+02      1.507e+02     4.8042e+00     1.6228e-01      2.314e+02     2.9463e+00     5.2872e-02     1.150225e-01          
     16         1      1543      1.487e+02      1.489e+02     5.4640e+00     1.6319e-01      2.330e+02     1.3815e-02     3.5689e-05     1.150225e-01          

     17         0      1602      1.325e+02      1.327e+02     4.6513e+00     1.4831e-01      2.321e+02     2.9471e+00     4.2470e-02     9.833799e-02          
     17         1      1673      1.307e+02      1.309e+02     5.2993e+00     1.4912e-01      2.336e+02     1.3136e-02     6.2111e-05     9.833799e-02          

     18         0      1761      1.124e+02      1.126e+02     4.4361e+00     1.3785e-01      2.295e+02     2.9140e+00     3.3908e-02     8.305225e-02          
     18         1      1869      1.107e+02      1.109e+02     5.0582e+00     1.3835e-01      2.308e+02     1.1734e-02     1.0153e-04     8.305225e-02          

     19         0      1976      8.951e+01      8.973e+01     4.1104e+00     1.3141e-01      2.207e+02     2.8351e+00     3.2758e-02     6.809716e-02          
     19         1      2071      8.809e+01      8.832e+01     4.6803e+00     1.2973e-01      2.216e+02     9.0115e-03     2.5298e-04     6.809716e-02          

     20         0      2189      6.148e+01      6.173e+01     3.5392e+00     1.6569e-01      1.977e+02     2.6826e+00     1.0740e-01     5.134028e-02          
     20         1      2320      6.119e+01      6.146e+01     3.9922e+00     1.2011e-01      1.978e+02     1.7780e-03     3.0794e-05     5.134028e-02          

     21         0      2471      1.728e+01      1.791e+01     2.0619e+00     5.0867e+00      1.117e+02     2.4074e+00     4.9651e+00     2.344470e-02          
     21         1      2681      2.138e+01      2.129e+01     1.8666e+00     1.7245e+00      1.120e+02     6.1185e-01     1.6880e+00     2.344470e-02          

     22         0      3074      1.021e+01      1.168e+01     1.7481e+00     8.1294e+00      4.593e+01     2.2214e+00     8.0625e+00     8.052484e-03          
     22         1      3278      1.271e+01      1.146e+01     7.4028e-01     3.0033e+00      4.526e+01     7.9291e-01     2.9827e+00     8.052484e-03          

     23         0      3685      1.361e+01      1.274e+01     7.6387e-01     8.2544e-01      3.256e+01     9.2828e-01     8.2679e-01     4.772562e-03          
     23         1      3893      1.385e+01      1.372e+01     5.5581e-01     1.8166e-01      3.350e+01     2.2781e-01     1.8470e-01     4.772562e-03          

     24         0      4303      1.326e+01      1.306e+01     4.0269e-01     1.2994e-01      2.974e+01     2.8599e-01     1.3623e-01     4.006825e-03          
     24         1      4511      1.323e+01      1.308e+01     4.2247e-01     8.3340e-02      2.977e+01     1.2222e-01     9.0924e-02     4.006825e-03          

     25         0      4920      1.272e+01      1.255e+01     3.0971e-01     1.0227e-01      2.626e+01     2.3393e-01     1.0738e-01     3.273714e-03          
     25         1      5130      1.270e+01      1.255e+01     3.4132e-01     7.8455e-02      2.626e+01     1.0143e-01     8.4570e-02     3.273714e-03          

     26         0      5542      1.224e+01      1.210e+01     2.7714e-01     8.9843e-02      2.426e+01     1.9356e-01     9.4531e-02     2.892565e-03          
     26         1      5752      1.229e+01      1.217e+01     2.9657e-01     6.4225e-02      2.433e+01     8.1187e-02     6.9413e-02     2.892565e-03          

     27         0      6170      1.216e+01      1.201e+01     2.2643e-01     7.6059e-02      2.110e+01     1.7769e-01     8.0280e-02     2.159688e-03          
     27         1      6378      1.223e+01      1.215e+01     2.5168e-01     4.9314e-02      2.123e+01     1.0128e-01     5.2823e-02     2.159688e-03          

     28         0      6795      1.218e+01      1.203e+01     2.0549e-01     7.8692e-02      1.515e+01     1.8927e-01     7.9997e-02     7.406401e-04          
     28         1      7000      1.218e+01      1.207e+01     1.9275e-01     6.8918e-02      1.519e+01     1.5098e-01     7.0081e-02     7.406401e-04          

     29         0      7418      1.208e+01      1.197e+01     1.7912e-01     7.9798e-02      1.373e+01     1.6309e-01     8.0347e-02     4.168746e-04          
     29         1      7626      1.208e+01      1.197e+01     1.7523e-01     7.7026e-02      1.373e+01     1.5411e-01     7.7593e-02     4.168746e-04          

     30         0      8045      1.203e+01      1.191e+01     1.7386e-01     8.3868e-02      1.249e+01     1.6884e-01     8.4050e-02     1.364790e-04          
     30         1      8253      1.203e+01      1.191e+01     1.6681e-01     8.2569e-02      1.248e+01     1.6056e-01     8.2756e-02     1.364790e-04          

     31         0      8674      1.197e+01      1.185e+01     1.6856e-01     8.8190e-02      1.185e+01     1.6856e-01     8.8190e-02     0.000000e+00          
     31         1      8882      1.198e+01      1.185e+01     1.6139e-01     8.5874e-02      1.185e+01     1.6139e-01     8.5874e-02     0.000000e+00          
     31         2      9088      1.191e+01      1.180e+01     1.5589e-01     9.1277e-02      1.180e+01     1.5589e-01     9.1277e-02     0.000000e+00          
     31         3      9294      1.188e+01      1.178e+01     1.5535e-01     8.6824e-02      1.178e+01     1.5535e-01     8.6824e-02     0.000000e+00          
     31         4      9508      1.187e+01      1.176e+01     1.5436e-01     8.6688e-02      1.176e+01     1.5436e-01     8.6688e-02     0.000000e+00          
     31         5      9710      1.180e+01      1.171e+01     1.5185e-01     8.6037e-02      1.171e+01     1.5185e-01     8.6037e-02     0.000000e+00          
     31         6      9919      1.179e+01      1.169e+01     1.5022e-01     8.2632e-02      1.169e+01     1.5022e-01     8.2632e-02     0.000000e+00          
     31         7     10132      1.178e+01      1.168e+01     1.4813e-01     8.4977e-02      1.168e+01     1.4813e-01     8.4977e-02     0.000000e+00          
     31         8     10340      1.177e+01      1.168e+01     1.4844e-01     8.3817e-02      1.168e+01     1.4844e-01     8.3817e-02     0.000000e+00          
     31         9     10549      1.163e+01      1.156e+01     1.4490e-01     7.9213e-02      1.156e+01     1.4490e-01     7.9213e-02     0.000000e+00          
