# Kona Param. Contn. convergence history (opt tol = 2.386485e-04 | feas tol = 1.000000e-06)
# outer     inner      cost      objective     lagrangian       opt norm      feas norm       homotopy        hom opt       hom feas     mu             
      0         0        20      2.647e+02      2.647e+02     2.3865e+00     0.0000e+00     0.0000e+00     0.0000e+00     0.0000e+00     1.0000     

      1         0        36      2.642e+02      2.642e+02     2.3865e+00     2.6087e-01      2.044e+01     1.4258e-02     2.0163e-02     9.227062e-01          
      1         1        80      2.642e+02      2.642e+02     2.3572e+00     2.6957e-01      2.044e+01     5.3290e-07     3.7469e-08     9.227062e-01          

      2         0       121      2.633e+02      2.634e+02     2.3397e+00     7.3268e-01      5.605e+01     7.3633e-02     1.2154e-01     7.876210e-01          
      2         1       165      2.633e+02      2.634e+02     2.3020e+00     6.0466e-01      5.607e+01     1.2875e-04     7.1817e-06     7.876210e-01          

      3         0       209      2.624e+02      2.625e+02     2.4226e+00     7.5147e-01      8.857e+01     3.1453e-01     1.7776e-01     6.641225e-01          
      3         1       260      2.623e+02      2.625e+02     2.4813e+00     6.1496e-01      8.866e+01     4.2141e-04     1.2279e-05     6.641225e-01          

      4         0       320      2.610e+02      2.611e+02     2.5921e+00     5.0261e-01      1.271e+02     6.6479e-01     1.6492e-01     5.180235e-01          
      4         1       373      2.607e+02      2.609e+02     2.7345e+00     4.4840e-01      1.274e+02     1.1177e-03     2.7667e-05     5.180235e-01          

      5         0       435      2.586e+02      2.587e+02     2.6349e+00     2.6915e-01      1.641e+02     9.5275e-01     1.1183e-01     3.780054e-01          
      5         1       481      2.579e+02      2.580e+02     2.8659e+00     2.8132e-01      1.646e+02     2.7364e-03     6.9878e-05     3.780054e-01          

      6         0       541      2.552e+02      2.552e+02     2.6276e+00     1.7806e-01      1.897e+02     1.1434e+00     8.4146e-02     2.816243e-01          
      6         1       595      2.542e+02      2.543e+02     2.9085e+00     1.8741e-01      1.904e+02     3.8618e-03     4.1450e-05     2.816243e-01          

      7         0       656      2.510e+02      2.511e+02     2.6250e+00     1.3192e-01      2.066e+02     1.2744e+00     6.6624e-02     2.185596e-01          
      7         1       703      2.501e+02      2.502e+02     2.9227e+00     1.3554e-01      2.074e+02     4.1783e-03     1.6507e-05     2.185596e-01          

      8         0       765      2.464e+02      2.464e+02     2.6235e+00     1.0140e-01      2.186e+02     1.3758e+00     5.3477e-02     1.740464e-01          
      8         1       823      2.454e+02      2.455e+02     2.9274e+00     1.0302e-01      2.195e+02     4.5605e-03     2.7804e-05     1.740464e-01          

      9         0       889      2.411e+02      2.411e+02     2.6188e+00     8.0418e-02      2.275e+02     1.4469e+00     4.3223e-02     1.414999e-01          
      9         1       952      2.401e+02      2.402e+02     2.9274e+00     8.1215e-02      2.284e+02     4.8340e-03     4.0655e-05     1.414999e-01          

     10         0      1019      2.352e+02      2.352e+02     2.6116e+00     6.5416e-02      2.343e+02     1.4987e+00     3.5268e-02     1.169985e-01          
     10         1      1095      2.342e+02      2.342e+02     2.9245e+00     6.5846e-02      2.353e+02     5.0309e-03     6.7797e-06     1.169985e-01          

     11         0      1165      2.287e+02      2.287e+02     2.6022e+00     5.4357e-02      2.396e+02     1.5373e+00     2.9050e-02     9.811264e-02          
     11         1      1244      2.277e+02      2.277e+02     2.9191e+00     5.4607e-02      2.406e+02     5.1641e-03     8.8996e-06     9.811264e-02          

     12         0      1317      2.215e+02      2.216e+02     2.5906e+00     4.5996e-02      2.438e+02     1.5662e+00     2.4129e-02     8.325789e-02          
     12         1      1396      2.205e+02      2.205e+02     2.9112e+00     4.6153e-02      2.448e+02     5.2430e-03     1.1720e-05     8.325789e-02          

     13         0      1470      2.137e+02      2.138e+02     2.5764e+00     3.9546e-02      2.471e+02     1.5876e+00     2.0183e-02     7.136446e-02          
     13         1      1549      2.127e+02      2.127e+02     2.9007e+00     3.9651e-02      2.482e+02     5.2749e-03     1.4940e-05     7.136446e-02          

     14         0      1638      2.053e+02      2.053e+02     2.5594e+00     3.4487e-02      2.498e+02     1.6027e+00     1.6980e-02     6.168858e-02          
     14         1      1717      2.042e+02      2.042e+02     2.8870e+00     3.4562e-02      2.509e+02     5.2659e-03     3.4824e-05     6.168858e-02          

     15         0      1805      1.961e+02      1.962e+02     2.5391e+00     3.0468e-02      2.519e+02     1.6124e+00     1.4351e-02     5.370027e-02          
     15         1      1883      1.950e+02      1.950e+02     2.8695e+00     3.0522e-02      2.531e+02     5.2203e-03     4.3661e-05     5.370027e-02          

     16         0      1984      1.863e+02      1.863e+02     2.5148e+00     2.7245e-02      2.535e+02     1.6172e+00     1.2173e-02     4.701306e-02          
     16         1      2062      1.852e+02      1.852e+02     2.8474e+00     2.7282e-02      2.546e+02     5.1407e-03     6.0630e-05     4.701306e-02          

     17         0      2163      1.758e+02      1.758e+02     2.4857e+00     2.4647e-02      2.545e+02     1.6170e+00     1.0365e-02     4.133861e-02          
     17         1      2273      1.746e+02      1.746e+02     2.8197e+00     2.4662e-02      2.556e+02     5.0255e-03     8.4578e-05     4.133861e-02          

     18         0      2375      1.645e+02      1.645e+02     2.4504e+00     2.2561e-02      2.548e+02     1.6118e+00     8.8929e-03     3.645632e-02          
     18         1      2499      1.633e+02      1.633e+02     2.7848e+00     2.2531e-02      2.559e+02     4.8746e-03     2.4451e-05     3.645632e-02          

     19         0      2613      1.524e+02      1.524e+02     2.4074e+00     2.0932e-02      2.543e+02     1.6009e+00     7.8177e-03     3.219168e-02          
     19         1      2757      1.512e+02      1.512e+02     2.7407e+00     2.0793e-02      2.554e+02     4.6921e-03     7.9222e-05     3.219168e-02          

     20         0      2875      1.394e+02      1.394e+02     2.3540e+00     1.9820e-02      2.528e+02     1.5836e+00     7.4600e-03     2.840213e-02          
     20         1      2996      1.382e+02      1.382e+02     2.6844e+00     1.9376e-02      2.538e+02     4.4920e-03     4.9497e-05     2.840213e-02          

     21         0      3114      1.254e+02      1.254e+02     2.2868e+00     1.9629e-02      2.498e+02     1.5583e+00     8.7746e-03     2.497794e-02          
     21         1      3236      1.243e+02      1.243e+02     2.6114e+00     1.8222e-02      2.508e+02     4.1244e-03     6.7424e-05     2.497794e-02          

     22         0      3370      1.102e+02      1.102e+02     2.1988e+00     2.2217e-02      2.446e+02     1.5229e+00     1.4221e-02     2.176678e-02          
     22         1      3511      1.091e+02      1.092e+02     2.5133e+00     1.7288e-02      2.454e+02     3.7146e-03     1.2838e-04     2.176678e-02          

     23         0      3713      9.322e+01      9.324e+01     2.0773e+00     3.5375e-02      2.356e+02     1.4727e+00     3.0759e-02     1.861543e-02          
     23         1      3869      9.229e+01      9.230e+01     2.3743e+00     1.6443e-02      2.362e+02     3.0787e-03     1.5695e-04     1.861543e-02          

     24         0      4073      7.331e+01      7.332e+01     1.8916e+00     9.7155e-02      2.191e+02     1.3995e+00     9.4270e-02     1.523582e-02          
     24         1      4270      7.271e+01      7.273e+01     2.1561e+00     1.5595e-02      2.194e+02     1.8073e-03     1.4338e-04     1.523582e-02          

     25         0      4536      4.526e+01      4.529e+01     1.5195e+00     7.2319e-01      1.789e+02     1.2836e+00     7.1516e-01     1.058092e-02          
     25         1      4921      4.622e+01      4.624e+01     1.6945e+00     1.4861e-02      1.787e+02     2.7360e-03     4.9243e-03     1.058092e-02          

     26         0      5332      1.815e+01      1.864e+01     8.6028e-01     8.2434e+00      1.034e+02     1.0403e+00     8.1995e+00     5.299232e-03          
     26         1      5845      1.981e+01      1.994e+01     8.4969e-01     2.2348e+00      1.036e+02     2.3543e-01     2.2227e+00     5.299232e-03          

     27         0      6866      2.019e+01      2.022e+01     7.2477e-01     2.9179e-01      9.971e+01     5.5507e-01     2.8999e-01     5.048282e-03          
     27         1      7380      2.049e+01      2.052e+01     8.5840e-01     2.2513e-02      9.981e+01     8.7609e-02     1.9000e-02     5.048282e-03          

     28         0      8387      2.063e+01      2.064e+01     6.7956e-01     8.1664e-02      9.200e+01     5.1720e-01     8.1281e-02     4.548282e-03          
     28         1      8911      2.064e+01      2.066e+01     8.0353e-01     1.5731e-02      9.201e+01     2.6564e-02     1.2388e-02     4.548282e-03          

     29         0      9937      2.020e+01      2.021e+01     6.4859e-01     2.3858e-02      8.620e+01     4.6770e-01     2.3300e-02     4.190661e-03          
     29         1     10450      2.019e+01      2.020e+01     7.5539e-01     9.3119e-03      8.620e+01     2.6251e-02     5.4634e-03     4.190661e-03          

     30         0     11490      1.920e+01      1.919e+01     5.4655e-01     6.4259e-02      6.900e+01     4.4080e-01     6.4482e-02     3.135898e-03          
     30         1     12015      1.894e+01      1.895e+01     6.1844e-01     1.6024e-02      6.887e+01     8.3608e-02     1.5373e-02     3.135898e-03          

     31         0     13062      1.855e+01      1.855e+01     5.2398e-01     3.0135e-02      6.844e+01     3.3285e-01     3.0503e-02     3.123986e-03          
     31         1     13603      1.848e+01      1.849e+01     5.9898e-01     1.7806e-02      6.841e+01     6.3891e-02     1.6885e-02     3.123986e-03          

     32         0     14653      1.824e+01      1.824e+01     5.2010e-01     2.2321e-02      6.826e+01     3.3062e-01     2.2670e-02     3.123262e-03          
     32         1     15188      1.821e+01      1.822e+01     5.9193e-01     1.5106e-02      6.824e+01     5.3067e-02     1.3989e-02     3.123262e-03          

     33         0     16246      1.789e+01      1.788e+01     4.7439e-01     2.8234e-02      6.001e+01     3.3772e-01     2.9393e-02     2.623262e-03          
     33         1     16781      1.758e+01      1.759e+01     5.2680e-01     2.4282e-02      5.983e+01     8.1263e-02     2.4256e-02     2.623262e-03          

     34         0     17854      1.739e+01      1.738e+01     4.0504e-01     3.3006e-02      4.658e+01     3.1276e-01     3.3738e-02     1.810338e-03          
     34         1     18384      1.663e+01      1.662e+01     4.2993e-01     6.3200e-02      4.601e+01     1.3294e-01     6.3403e-02     1.810338e-03          

     35         0     19460      1.664e+01      1.664e+01     3.6286e-01     3.5572e-02      4.510e+01     2.2839e-01     3.5594e-02     1.753496e-03          
     35         1     19986      1.640e+01      1.638e+01     3.9260e-01     4.2766e-02      4.491e+01     1.1734e-01     4.3472e-02     1.753496e-03          

     36         0     21059      1.638e+01      1.638e+01     3.4908e-01     3.3544e-02      4.418e+01     2.2003e-01     3.3653e-02     1.708537e-03          
     36         1     21573      1.623e+01      1.622e+01     3.8255e-01     3.7768e-02      4.405e+01     1.1362e-01     3.8444e-02     1.708537e-03          

     37         0     22659      1.618e+01      1.618e+01     3.3981e-01     3.3779e-02      4.370e+01     2.1304e-01     3.3919e-02     1.688956e-03          
     37         1     23173      1.609e+01      1.608e+01     3.7543e-01     3.4722e-02      4.363e+01     1.0887e-01     3.5323e-02     1.688956e-03          

     38         0     24253      1.600e+01      1.599e+01     3.2742e-01     3.3785e-02      4.167e+01     2.1290e-01     3.3878e-02     1.572945e-03          
     38         1     24791      1.587e+01      1.586e+01     3.5883e-01     3.6470e-02      4.157e+01     1.1107e-01     3.6992e-02     1.572945e-03          

     39         0     25861      1.582e+01      1.582e+01     3.0953e-01     3.3548e-02      3.896e+01     2.0714e-01     3.3732e-02     1.415810e-03          
     39         1     26399      1.566e+01      1.564e+01     3.3533e-01     3.9237e-02      3.882e+01     1.1694e-01     3.9784e-02     1.415810e-03          

     40         0     27484      1.559e+01      1.559e+01     2.8361e-01     3.5435e-02      3.311e+01     2.1103e-01     3.5556e-02     1.069334e-03          
     40         1     28012      1.529e+01      1.526e+01     2.9904e-01     5.0855e-02      3.282e+01     1.3812e-01     5.1370e-02     1.069334e-03          

     41         0     29086      1.531e+01      1.531e+01     2.5966e-01     3.8017e-02      3.070e+01     1.9032e-01     3.8208e-02     9.376520e-04          
     41         1     29615      1.509e+01      1.507e+01     2.7412e-01     4.9838e-02      3.050e+01     1.3933e-01     5.0257e-02     9.376520e-04          

     42         0     30693      1.511e+01      1.510e+01     2.5006e-01     4.0548e-02      2.914e+01     1.8700e-01     4.0734e-02     8.536148e-04          
     42         1     31226      1.498e+01      1.495e+01     2.5807e-01     4.6453e-02      2.901e+01     1.3976e-01     4.6878e-02     8.536148e-04          

     43         0     32318      1.490e+01      1.489e+01     2.4596e-01     4.5060e-02      2.894e+01     1.8429e-01     4.5143e-02     8.523942e-04          
     43         1     32865      1.485e+01      1.483e+01     2.5151e-01     4.3103e-02      2.889e+01     1.3347e-01     4.3416e-02     8.523942e-04          

     44         0     33957      1.479e+01      1.478e+01     2.3577e-01     4.0142e-02      2.829e+01     1.7303e-01     4.0419e-02     8.190413e-04          
     44         1     34504      1.473e+01      1.471e+01     2.4404e-01     4.0457e-02      2.823e+01     1.3051e-01     4.0837e-02     8.190413e-04          

     45         0     35608      1.462e+01      1.461e+01     2.3468e-01     4.3285e-02      2.736e+01     1.8218e-01     4.3446e-02     7.718116e-04          
     45         1     36163      1.461e+01      1.460e+01     2.3447e-01     3.9707e-02      2.735e+01     1.2932e-01     3.9974e-02     7.718116e-04          

     46         0     37269      1.450e+01      1.449e+01     2.2645e-01     3.9553e-02      2.681e+01     1.7549e-01     3.9856e-02     7.451200e-04          
     46         1     37826      1.447e+01      1.446e+01     2.2696e-01     3.8696e-02      2.678e+01     1.2518e-01     3.9014e-02     7.451200e-04          

     47         0     38919      1.429e+01      1.428e+01     2.2331e-01     4.3871e-02      2.616e+01     1.7528e-01     4.3961e-02     7.166628e-04          
     47         1     39477      1.431e+01      1.430e+01     2.1709e-01     3.6777e-02      2.617e+01     1.2030e-01     3.6967e-02     7.166628e-04          

     48         0     40586      1.426e+01      1.425e+01     2.0561e-01     3.5722e-02      2.606e+01     1.4849e-01     3.5987e-02     7.128719e-04          
     48         1     41136      1.423e+01      1.422e+01     2.1446e-01     3.6043e-02      2.603e+01     1.1691e-01     3.6312e-02     7.128719e-04          

     49         0     42229      1.417e+01      1.416e+01     2.0093e-01     3.5384e-02      2.553e+01     1.4643e-01     3.5528e-02     6.856351e-04          
     49         1     42790      1.414e+01      1.413e+01     2.0837e-01     3.4601e-02      2.551e+01     1.1529e-01     3.4815e-02     6.856351e-04          

     50         0     43896      1.407e+01      1.406e+01     1.9608e-01     3.4865e-02      2.541e+01     1.4227e-01     3.5084e-02     6.838397e-04          
     50         1     44464      1.406e+01      1.405e+01     2.0439e-01     3.2148e-02      2.540e+01     1.1112e-01     3.2403e-02     6.838397e-04          

     51         0     45571      1.395e+01      1.394e+01     1.9282e-01     3.5971e-02      2.483e+01     1.4374e-01     3.6109e-02     6.556786e-04          
     51         1     46135      1.396e+01      1.395e+01     1.9756e-01     3.1716e-02      2.485e+01     1.0910e-01     3.1888e-02     6.556786e-04          

     52         0     47236      1.388e+01      1.387e+01     1.8698e-01     3.2588e-02      2.469e+01     1.3653e-01     3.2827e-02     6.503787e-04          
     52         1     47798      1.389e+01      1.388e+01     1.9387e-01     3.0243e-02      2.469e+01     1.0581e-01     3.0471e-02     6.503787e-04          

     53         0     48896      1.379e+01      1.379e+01     1.8345e-01     3.2785e-02      2.421e+01     1.3226e-01     3.2879e-02     6.261809e-04          
     53         1     49454      1.378e+01      1.377e+01     1.8898e-01     3.1922e-02      2.419e+01     1.0384e-01     3.2082e-02     6.261809e-04          

     54         0     50549      1.379e+01      1.378e+01     1.7743e-01     2.8019e-02      2.378e+01     1.2617e-01     2.8217e-02     6.008862e-04          
     54         1     51107      1.372e+01      1.371e+01     1.8523e-01     3.1196e-02      2.371e+01     1.0319e-01     3.1421e-02     6.008862e-04          

     55         0     52199      1.370e+01      1.369e+01     1.7335e-01     3.0474e-02      2.364e+01     1.2459e-01     3.0623e-02     5.975256e-04          
     55         1     52756      1.369e+01      1.368e+01     1.8236e-01     2.9993e-02      2.363e+01     1.0178e-01     3.0160e-02     5.975256e-04          

     56         0     53859      1.368e+01      1.368e+01     1.7095e-01     2.7240e-02      2.315e+01     1.2304e-01     2.7412e-02     5.688152e-04          
     56         1     54418      1.362e+01      1.361e+01     1.7963e-01     3.0993e-02      2.309e+01     1.0165e-01     3.1202e-02     5.688152e-04          

     57         0     55502      1.364e+01      1.363e+01     1.6784e-01     2.6902e-02      2.310e+01     1.1923e-01     2.7021e-02     5.678646e-04          
     57         1     56047      1.358e+01      1.357e+01     1.7749e-01     3.0641e-02      2.304e+01     9.9850e-02     3.0802e-02     5.678646e-04          

     58         0     57138      1.363e+01      1.362e+01     1.6924e-01     2.4191e-02      2.295e+01     1.1829e-01     2.4340e-02     5.597723e-04          
     58         1     57696      1.350e+01      1.350e+01     1.7324e-01     3.1650e-02      2.283e+01     9.7474e-02     3.1811e-02     5.597723e-04          

     59         0     58794      1.355e+01      1.354e+01     1.6204e-01     2.5701e-02      2.268e+01     1.1708e-01     2.5821e-02     5.480176e-04          
     59         1     59330      1.347e+01      1.346e+01     1.7472e-01     3.1114e-02      2.260e+01     9.7894e-02     3.1298e-02     5.480176e-04          

     60         0     60394      1.354e+01      1.353e+01     1.6602e-01     2.2691e-02      2.265e+01     1.1493e-01     2.2832e-02     5.463282e-04          
     60         1     60951      1.342e+01      1.342e+01     1.6778e-01     2.9618e-02      2.254e+01     9.4469e-02     2.9753e-02     5.463282e-04          

     61         0     62063      1.345e+01      1.344e+01     1.5791e-01     2.5808e-02      2.251e+01     1.1356e-01     2.5932e-02     5.432737e-04          
     61         1     62617      1.340e+01      1.340e+01     1.6817e-01     2.8531e-02      2.247e+01     9.3680e-02     2.8674e-02     5.432737e-04          

     62         0     63711      1.345e+01      1.345e+01     1.5861e-01     2.2587e-02      2.183e+01     1.1415e-01     2.2716e-02     5.021355e-04          
     62         1     64266      1.332e+01      1.331e+01     1.6104e-01     3.0729e-02      2.171e+01     9.4102e-02     3.0886e-02     5.021355e-04          

     63         0     65367      1.336e+01      1.335e+01     1.4946e-01     2.5201e-02      2.071e+01     1.1647e-01     2.5325e-02     4.405653e-04          
     63         1     65901      1.331e+01      1.330e+01     1.5559e-01     2.8517e-02      2.067e+01     9.8297e-02     2.8682e-02     4.405653e-04          

     64         0     66990      1.332e+01      1.331e+01     1.4680e-01     2.5945e-02      2.013e+01     1.1351e-01     2.6070e-02     4.080386e-04          
     64         1     67541      1.326e+01      1.325e+01     1.5411e-01     3.0218e-02      2.007e+01     9.9969e-02     3.0377e-02     4.080386e-04          

     65         0     68608      1.331e+01      1.331e+01     1.4732e-01     2.3323e-02      2.002e+01     1.1008e-01     2.3434e-02     4.015771e-04          
     65         1     69174      1.320e+01      1.319e+01     1.4938e-01     3.0923e-02      1.991e+01     9.7465e-02     3.1036e-02     4.015771e-04          

     66         0     70271      1.324e+01      1.323e+01     1.4160e-01     2.5241e-02      1.967e+01     1.1075e-01     2.5343e-02     3.851519e-04          
     66         1     70816      1.320e+01      1.319e+01     1.4595e-01     2.7739e-02      1.963e+01     9.7711e-02     2.7868e-02     3.851519e-04          

     67         0     71916      1.320e+01      1.320e+01     1.3996e-01     2.5821e-02      1.946e+01     1.0898e-01     2.5935e-02     3.745950e-04          
     67         1     72477      1.315e+01      1.314e+01     1.4632e-01     2.9487e-02      1.941e+01     9.7511e-02     2.9615e-02     3.745950e-04          

     68         0     73544      1.320e+01      1.319e+01     1.4080e-01     2.3096e-02      1.944e+01     1.0621e-01     2.3195e-02     3.730741e-04          
     68         1     74106      1.310e+01      1.310e+01     1.4268e-01     2.9663e-02      1.934e+01     9.5166e-02     2.9764e-02     3.730741e-04          

     69         0     75207      1.314e+01      1.313e+01     1.3584e-01     2.4457e-02      1.915e+01     1.0663e-01     2.4547e-02     3.593426e-04          
     69         1     75762      1.310e+01      1.309e+01     1.4006e-01     2.7208e-02      1.911e+01     9.5235e-02     2.7319e-02     3.593426e-04          

     70         0     76859      1.312e+01      1.311e+01     1.3501e-01     2.4261e-02      1.909e+01     1.0422e-01     2.4364e-02     3.571116e-04          
     70         1     77407      1.306e+01      1.305e+01     1.3993e-01     2.8349e-02      1.903e+01     9.4222e-02     2.8468e-02     3.571116e-04          

     71         0     78481      1.310e+01      1.310e+01     1.3490e-01     2.2517e-02      1.905e+01     1.0243e-01     2.2604e-02     3.558556e-04          
     71         1     79051      1.301e+01      1.300e+01     1.3822e-01     2.8842e-02      1.897e+01     9.2496e-02     2.8935e-02     3.558556e-04          

     72         0     80140      1.304e+01      1.303e+01     1.3096e-01     2.4814e-02      1.877e+01     1.0590e-01     2.4908e-02     3.428559e-04          
     72         1     80676      1.303e+01      1.302e+01     1.3488e-01     2.4505e-02      1.877e+01     9.2999e-02     2.4593e-02     3.428559e-04          

     73         0     81780      1.301e+01      1.300e+01     1.2975e-01     2.4819e-02      1.864e+01     1.0281e-01     2.4927e-02     3.362893e-04          
     73         1     82337      1.298e+01      1.297e+01     1.3466e-01     2.6841e-02      1.861e+01     9.2087e-02     2.6946e-02     3.362893e-04          

     74         0     83425      1.302e+01      1.302e+01     1.3124e-01     2.1299e-02      1.858e+01     1.0018e-01     2.1378e-02     3.320379e-04          
     74         1     83983      1.293e+01      1.292e+01     1.3131e-01     2.7619e-02      1.849e+01     9.0224e-02     2.7714e-02     3.320379e-04          

     75         0     85098      1.296e+01      1.296e+01     1.2629e-01     2.2798e-02      1.850e+01     9.8944e-02     2.2873e-02     3.304203e-04          
     75         1     85649      1.290e+01      1.289e+01     1.3542e-01     2.8040e-02      1.843e+01     9.1281e-02     2.8137e-02     3.304203e-04          

     76         0     86716      1.295e+01      1.294e+01     1.2540e-01     2.1633e-02      1.821e+01     9.8013e-02     2.1715e-02     3.142812e-04          
     76         1     87274      1.286e+01      1.286e+01     1.3177e-01     2.7741e-02      1.813e+01     9.0641e-02     2.7836e-02     3.142812e-04          

     77         0     88348      1.290e+01      1.290e+01     1.2287e-01     2.2467e-02      1.805e+01     9.7739e-02     2.2531e-02     3.068894e-04          
     77         1     88896      1.287e+01      1.287e+01     1.2611e-01     2.4361e-02      1.802e+01     8.8942e-02     2.4446e-02     3.068894e-04          

     78         0     90004      1.287e+01      1.287e+01     1.2207e-01     2.3433e-02      1.791e+01     9.7538e-02     2.3518e-02     3.005202e-04          
     78         1     90571      1.286e+01      1.285e+01     1.2489e-01     2.4119e-02      1.789e+01     8.8577e-02     2.4205e-02     3.005202e-04          

     79         0     91683      1.285e+01      1.285e+01     1.2068e-01     2.3071e-02      1.784e+01     9.5762e-02     2.3138e-02     2.974759e-04          
     79         1     92242      1.282e+01      1.281e+01     1.2575e-01     2.5213e-02      1.781e+01     8.8081e-02     2.5294e-02     2.974759e-04          

     80         0     93327      1.286e+01      1.286e+01     1.2285e-01     2.0125e-02      1.773e+01     9.5249e-02     2.0196e-02     2.902497e-04          
     80         1     93888      1.280e+01      1.279e+01     1.2077e-01     2.4539e-02      1.767e+01     8.7024e-02     2.4609e-02     2.902497e-04          

     81         0     95000      1.281e+01      1.280e+01     1.1862e-01     2.2652e-02      1.766e+01     9.5600e-02     2.2728e-02     2.894635e-04          
     81         1     95550      1.279e+01      1.278e+01     1.2135e-01     2.3594e-02      1.764e+01     8.6445e-02     2.3670e-02     2.894635e-04          

     82         0     96652      1.280e+01      1.279e+01     1.1750e-01     2.1831e-02      1.759e+01     9.2781e-02     2.1908e-02     2.860497e-04          
     82         1     97205      1.276e+01      1.275e+01     1.2107e-01     2.4473e-02      1.756e+01     8.5841e-02     2.4556e-02     2.860497e-04          

     83         0     98291      1.280e+01      1.279e+01     1.1801e-01     1.9894e-02      1.759e+01     9.1827e-02     1.9955e-02     2.859497e-04          
     83         1     98861      1.272e+01      1.272e+01     1.1943e-01     2.5013e-02      1.752e+01     8.4339e-02     2.5091e-02     2.859497e-04          

     84         0     99964      1.274e+01      1.274e+01     1.1525e-01     2.2254e-02      1.749e+01     9.4415e-02     2.2323e-02     2.830649e-04          
     84         1     100512      1.274e+01      1.273e+01     1.1812e-01     2.1751e-02      1.749e+01     8.4339e-02     2.1814e-02     2.830649e-04          

     85         0     101630      1.272e+01      1.272e+01     1.1421e-01     2.1926e-02      1.740e+01     9.1584e-02     2.2003e-02     2.787477e-04          
     85         1     102183      1.270e+01      1.269e+01     1.1810e-01     2.3490e-02      1.738e+01     8.3546e-02     2.3566e-02     2.787477e-04          

     86         0     103270      1.273e+01      1.273e+01     1.1464e-01     1.9140e-02      1.721e+01     9.0319e-02     1.9196e-02     2.668320e-04          
     86         1     103838      1.266e+01      1.266e+01     1.1550e-01     2.4010e-02      1.714e+01     8.3027e-02     2.4080e-02     2.668320e-04          

     87         0     104943      1.267e+01      1.266e+01     1.1335e-01     2.2594e-02      1.708e+01     9.4483e-02     2.2663e-02     2.627307e-04          
     87         1     105490      1.267e+01      1.267e+01     1.1408e-01     2.1497e-02      1.709e+01     8.3113e-02     2.1557e-02     2.627307e-04          

     88         0     106614      1.266e+01      1.265e+01     1.1112e-01     2.2195e-02      1.705e+01     8.9864e-02     2.2271e-02     2.615095e-04          
     88         1     107173      1.264e+01      1.264e+01     1.1367e-01     2.2795e-02      1.703e+01     8.2067e-02     2.2863e-02     2.615095e-04          

     89         0     108275      1.266e+01      1.266e+01     1.1079e-01     1.9745e-02      1.701e+01     8.7455e-02     1.9803e-02     2.585374e-04          
     89         1     108846      1.262e+01      1.261e+01     1.1281e-01     2.2997e-02      1.696e+01     8.1397e-02     2.3064e-02     2.585374e-04          

     90         0     109948      1.264e+01      1.264e+01     1.0915e-01     1.9899e-02      1.690e+01     8.6866e-02     1.9952e-02     2.537726e-04          
     90         1     110509      1.260e+01      1.259e+01     1.1209e-01     2.3077e-02      1.686e+01     8.1090e-02     2.3140e-02     2.537726e-04          

     91         0     111601      1.263e+01      1.263e+01     1.0821e-01     1.9058e-02      1.679e+01     8.6523e-02     1.9110e-02     2.476964e-04          
     91         1     112157      1.256e+01      1.256e+01     1.1267e-01     2.4339e-02      1.672e+01     8.1297e-02     2.4408e-02     2.476964e-04          

     92         0     113242      1.261e+01      1.260e+01     1.0643e-01     1.8631e-02      1.675e+01     8.5474e-02     1.8678e-02     2.467688e-04          
     92         1     113783      1.253e+01      1.252e+01     1.1631e-01     2.4876e-02      1.668e+01     8.3342e-02     2.4947e-02     2.467688e-04          
