# Kona Param. Contn. convergence history (opt tol = 4.772971e-04 | feas tol = 1.000000e-06)
# outer     inner      cost      objective     lagrangian       opt norm      feas norm       homotopy        hom opt       hom feas     mu             
      0         0        18      2.647e+02      2.647e+02     4.7730e+00     0.0000e+00     0.0000e+00     0.0000e+00     0.0000e+00     1.0000     

      1         0        33      2.644e+02      2.644e+02     4.7730e+00     6.9208e-02      2.712e+00     5.0176e-04     7.0959e-04     9.897470e-01          
      1         1        67      2.644e+02      2.644e+02     4.7719e+00     6.9873e-02      2.712e+00     3.3681e-10     3.2024e-08     9.897470e-01          

      2         0        99      2.640e+02      2.640e+02     4.7704e+00     2.0813e-01      8.025e+00     1.9829e-03     4.8981e-03     9.696380e-01          
      2         1       138      2.639e+02      2.639e+02     4.7638e+00     2.0993e-01      8.025e+00     8.2541e-09     1.1746e-10     9.696380e-01          

      3         0       173      2.630e+02      2.630e+02     4.7569e+00     4.8230e-01      1.822e+01     8.8205e-03     2.4853e-02     9.309178e-01          
      3         1       215      2.630e+02      2.630e+02     4.7257e+00     4.8244e-01      1.823e+01     9.6092e-07     9.2757e-09     9.309178e-01          

      4         0       255      2.612e+02      2.612e+02     4.7087e+00     9.8176e-01      3.704e+01     5.1264e-02     1.0199e-01     8.590624e-01          
      4         1       298      2.611e+02      2.612e+02     4.6191e+00     9.3294e-01      3.705e+01     6.8464e-05     6.0042e-07     8.590624e-01          

      5         0       340      2.579e+02      2.582e+02     4.6913e+00     1.5595e+00      6.784e+01     2.9631e-01     2.9376e-01     7.403326e-01          
      5         1       383      2.577e+02      2.583e+02     4.6960e+00     1.2773e+00      6.800e+01     1.6837e-03     2.0883e-05     7.403326e-01          

      6         0       439      2.544e+02      2.549e+02     4.9099e+00     1.3347e+00      9.641e+01     8.2150e-01     3.3945e-01     6.307126e-01          
      6         1       482      2.540e+02      2.548e+02     5.0939e+00     1.1709e+00      9.676e+01     3.0670e-03     6.1923e-05     6.307126e-01          

      7         0       539      2.501e+02      2.506e+02     5.0720e+00     9.6654e-01      1.230e+02     1.3238e+00     3.0110e-01     5.302586e-01          
      7         1       583      2.494e+02      2.502e+02     5.4326e+00     9.3105e-01      1.235e+02     4.0169e-03     1.2612e-04     5.302586e-01          

      8         0       639      2.444e+02      2.447e+02     5.1435e+00     6.9910e-01      1.474e+02     1.7266e+00     2.5022e-01     4.389021e-01          
      8         1       690      2.433e+02      2.439e+02     5.6329e+00     7.0558e-01      1.480e+02     6.3270e-03     2.6170e-05     4.389021e-01          

      9         0       746      2.370e+02      2.373e+02     5.1635e+00     5.2549e-01      1.680e+02     2.0381e+00     2.0517e-01     3.619577e-01          
      9         1       791      2.357e+02      2.362e+02     5.7301e+00     5.3682e-01      1.689e+02     9.0124e-03     5.6743e-05     3.619577e-01          

     10         0       848      2.283e+02      2.285e+02     5.1610e+00     4.1189e-01      1.847e+02     2.2917e+00     1.6953e-01     3.005017e-01          
     10         1       900      2.268e+02      2.272e+02     5.7685e+00     4.1960e-01      1.858e+02     1.1033e-02     3.1664e-05     3.005017e-01          

     11         0       964      2.183e+02      2.186e+02     5.1456e+00     3.3360e-01      1.979e+02     2.5069e+00     1.4113e-01     2.520130e-01          
     11         1      1017      2.168e+02      2.171e+02     5.7736e+00     3.3820e-01      1.991e+02     1.2353e-02     1.0479e-04     2.520130e-01          

     12         0      1087      2.073e+02      2.075e+02     5.1135e+00     2.7740e-01      2.084e+02     2.6638e+00     1.1681e-01     2.133556e-01          
     12         1      1153      2.057e+02      2.059e+02     5.7562e+00     2.8022e-01      2.098e+02     1.3128e-02     1.0577e-04     2.133556e-01          

     13         0      1223      1.951e+02      1.953e+02     5.0662e+00     2.3584e-01      2.168e+02     2.7790e+00     9.6421e-02     1.819318e-01          
     13         1      1299      1.934e+02      1.936e+02     5.7196e+00     2.3769e-01      2.183e+02     1.3648e-02     9.4113e-06     1.819318e-01          

     14         0      1369      1.816e+02      1.818e+02     5.0020e+00     2.0449e-01      2.234e+02     2.8620e+00     7.9366e-02     1.558964e-01          
     14         1      1445      1.799e+02      1.801e+02     5.6625e+00     2.0583e-01      2.250e+02     1.3967e-02     1.4646e-05     1.558964e-01          

     15         0      1522      1.668e+02      1.670e+02     4.9171e+00     1.8058e-01      2.283e+02     2.9174e+00     6.5030e-02     1.339285e-01          
     15         1      1597      1.650e+02      1.652e+02     5.5801e+00     1.8164e-01      2.299e+02     1.4048e-02     2.8772e-05     1.339285e-01          

     16         0      1683      1.505e+02      1.507e+02     4.8042e+00     1.6228e-01      2.314e+02     2.9463e+00     5.2871e-02     1.150226e-01          
     16         1      1758      1.487e+02      1.489e+02     5.4640e+00     1.6319e-01      2.330e+02     1.3815e-02     5.6678e-05     1.150226e-01          

     17         0      1857      1.325e+02      1.327e+02     4.6513e+00     1.4831e-01      2.321e+02     2.9471e+00     4.2470e-02     9.833789e-02          
     17         1      1932      1.307e+02      1.309e+02     5.2993e+00     1.4912e-01      2.336e+02     1.3137e-02     8.7725e-05     9.833789e-02          

     18         0      2043      1.124e+02      1.126e+02     4.4361e+00     1.3785e-01      2.295e+02     2.9140e+00     3.3907e-02     8.305181e-02          
     18         1      2152      1.107e+02      1.109e+02     5.0582e+00     1.3836e-01      2.308e+02     1.1754e-02     1.3915e-04     8.305181e-02          

     19         0      2269      8.953e+01      8.974e+01     4.1106e+00     1.3142e-01      2.207e+02     2.8350e+00     3.2744e-02     6.810947e-02          
     19         1      2390      8.811e+01      8.834e+01     4.6807e+00     1.2973e-01      2.216e+02     8.9421e-03     1.7103e-04     6.810947e-02          

     20         0      2548      6.146e+01      6.171e+01     3.5391e+00     1.6564e-01      1.976e+02     2.6832e+00     1.0741e-01     5.130732e-02          
     20         1      2703      6.114e+01      6.140e+01     3.9906e+00     1.2008e-01      1.978e+02     1.9229e-03     1.7739e-04     5.130732e-02          

     21         0      2870      1.739e+01      1.800e+01     2.0667e+00     4.9315e+00      1.120e+02     2.4051e+00     4.8132e+00     2.350544e-02          
     21         1      3071      2.046e+01      1.902e+01     1.7928e+00     1.7171e+00      1.111e+02     5.8065e-01     1.6990e+00     2.350544e-02          

     22         0      3454      1.557e+01      1.514e+01     1.5999e+00     1.0313e+00      1.514e+01     1.5999e+00     1.0313e+00     0.000000e+00          
     22         1      3661      1.612e+01      1.597e+01     6.0330e-01     4.5646e-01      1.597e+01     6.0330e-01     4.5646e-01     0.000000e+00          
     22         2      3864      1.558e+01      1.532e+01     5.3288e-01     2.8224e-01      1.532e+01     5.3288e-01     2.8224e-01     0.000000e+00          
     22         3      4061      1.552e+01      1.539e+01     5.1340e-01     1.7349e-01      1.539e+01     5.1340e-01     1.7349e-01     0.000000e+00          
     22         4      4258      1.491e+01      1.474e+01     4.7022e-01     1.9169e-01      1.474e+01     4.7022e-01     1.9169e-01     0.000000e+00          
     22         5      4460      1.497e+01      1.484e+01     4.5799e-01     1.3053e-01      1.484e+01     4.5799e-01     1.3053e-01     0.000000e+00          
     22         6      4660      1.442e+01      1.426e+01     4.1985e-01     1.7411e-01      1.426e+01     4.1985e-01     1.7411e-01     0.000000e+00          
     22         7      4867      1.460e+01      1.446e+01     4.1597e-01     1.1234e-01      1.446e+01     4.1597e-01     1.1234e-01     0.000000e+00          
     22         8      5072      1.398e+01      1.383e+01     3.7813e-01     1.6618e-01      1.383e+01     3.7813e-01     1.6618e-01     0.000000e+00          
     22         9      5276      1.421e+01      1.409e+01     3.7432e-01     9.6792e-02      1.409e+01     3.7432e-01     9.6792e-02     0.000000e+00          
     22        10      5487      1.372e+01      1.357e+01     3.4343e-01     1.4303e-01      1.357e+01     3.4343e-01     1.4303e-01     0.000000e+00          
     22        11      5695      1.389e+01      1.376e+01     3.4184e-01     9.5837e-02      1.376e+01     3.4184e-01     9.5837e-02     0.000000e+00          
     22        12      5899      1.364e+01      1.352e+01     3.2648e-01     1.1390e-01      1.352e+01     3.2648e-01     1.1390e-01     0.000000e+00          
     22        13      6106      1.370e+01      1.356e+01     3.2396e-01     9.4970e-02      1.356e+01     3.2396e-01     9.4970e-02     0.000000e+00          
     22        14      6312      1.354e+01      1.341e+01     3.1417e-01     1.0611e-01      1.341e+01     3.1417e-01     1.0611e-01     0.000000e+00          
     22        15      6521      1.360e+01      1.347e+01     3.1316e-01     8.9514e-02      1.347e+01     3.1316e-01     8.9514e-02     0.000000e+00          
     22        16      6724      1.344e+01      1.331e+01     3.0362e-01     1.0263e-01      1.331e+01     3.0362e-01     1.0263e-01     0.000000e+00          
     22        17      6930      1.350e+01      1.338e+01     3.0332e-01     8.4927e-02      1.338e+01     3.0332e-01     8.4927e-02     0.000000e+00          
     22        18      7128      1.333e+01      1.321e+01     2.9340e-01     9.9667e-02      1.321e+01     2.9340e-01     9.9667e-02     0.000000e+00          
     22        19      7330      1.341e+01      1.329e+01     2.9340e-01     8.0344e-02      1.329e+01     2.9340e-01     8.0344e-02     0.000000e+00          
     22        20      7532      1.324e+01      1.312e+01     2.8356e-01     9.5984e-02      1.312e+01     2.8356e-01     9.5984e-02     0.000000e+00          
     22        21      7736      1.329e+01      1.318e+01     2.8283e-01     7.9871e-02      1.318e+01     2.8283e-01     7.9871e-02     0.000000e+00          
     22        22      7940      1.315e+01      1.304e+01     2.7441e-01     9.0913e-02      1.304e+01     2.7441e-01     9.0913e-02     0.000000e+00          
     22        23      8147      1.319e+01      1.308e+01     2.7312e-01     7.8696e-02      1.308e+01     2.7312e-01     7.8696e-02     0.000000e+00          
     22        24      8356      1.307e+01      1.295e+01     2.6566e-01     8.8814e-02      1.295e+01     2.6566e-01     8.8814e-02     0.000000e+00          
     22        25      8568      1.311e+01      1.300e+01     2.6512e-01     7.5933e-02      1.300e+01     2.6512e-01     7.5933e-02     0.000000e+00          
     22        26      8774      1.299e+01      1.287e+01     2.5761e-01     8.7179e-02      1.287e+01     2.5761e-01     8.7179e-02     0.000000e+00          
     22        27      8979      1.304e+01      1.293e+01     2.5765e-01     7.3010e-02      1.293e+01     2.5765e-01     7.3010e-02     0.000000e+00          
     22        28      9185      1.291e+01      1.280e+01     2.5024e-01     8.4775e-02      1.280e+01     2.5024e-01     8.4775e-02     0.000000e+00          
     22        29      9385      1.296e+01      1.286e+01     2.5053e-01     7.0365e-02      1.286e+01     2.5053e-01     7.0365e-02     0.000000e+00          
     22        30      9594      1.283e+01      1.273e+01     2.4292e-01     8.2858e-02      1.273e+01     2.4292e-01     8.2858e-02     0.000000e+00          
     22        31      9797      1.289e+01      1.279e+01     2.4330e-01     6.8084e-02      1.279e+01     2.4330e-01     6.8084e-02     0.000000e+00          
     22        32     10001      1.277e+01      1.267e+01     2.3627e-01     7.9379e-02      1.267e+01     2.3627e-01     7.9379e-02     0.000000e+00          
     22        33     10209      1.281e+01      1.271e+01     2.3597e-01     6.8783e-02      1.271e+01     2.3597e-01     6.8783e-02     0.000000e+00          
     22        34     10412      1.275e+01      1.265e+01     2.3233e-01     7.2820e-02      1.265e+01     2.3233e-01     7.2820e-02     0.000000e+00          
     22        35     10617      1.275e+01      1.265e+01     2.3114e-01     6.9329e-02      1.265e+01     2.3114e-01     6.9329e-02     0.000000e+00          
     22        36     10821      1.272e+01      1.262e+01     2.2897e-01     7.0463e-02      1.262e+01     2.2897e-01     7.0463e-02     0.000000e+00          
     22        37     11025      1.272e+01      1.262e+01     2.2788e-01     6.8104e-02      1.262e+01     2.2788e-01     6.8104e-02     0.000000e+00          
     22        38     11230      1.269e+01      1.259e+01     2.2597e-01     6.9000e-02      1.259e+01     2.2597e-01     6.9000e-02     0.000000e+00          
     22        39     11440      1.269e+01      1.259e+01     2.2489e-01     6.7207e-02      1.259e+01     2.2489e-01     6.7207e-02     0.000000e+00          
     22        40     11644      1.266e+01      1.256e+01     2.2313e-01     6.7926e-02      1.256e+01     2.2313e-01     6.7926e-02     0.000000e+00          
     22        41     11851      1.266e+01      1.256e+01     2.2201e-01     6.6524e-02      1.256e+01     2.2201e-01     6.6524e-02     0.000000e+00          
     22        42     12061      1.263e+01      1.254e+01     2.2047e-01     6.6792e-02      1.254e+01     2.2047e-01     6.6792e-02     0.000000e+00          
     22        43     12267      1.263e+01      1.253e+01     2.1928e-01     6.5870e-02      1.253e+01     2.1928e-01     6.5870e-02     0.000000e+00          
     22        44     12478      1.260e+01      1.251e+01     2.1783e-01     6.5963e-02      1.251e+01     2.1783e-01     6.5963e-02     0.000000e+00          
     22        45     12687      1.260e+01      1.250e+01     2.1670e-01     6.5072e-02      1.250e+01     2.1670e-01     6.5072e-02     0.000000e+00          
     22        46     12893      1.258e+01      1.249e+01     2.1538e-01     6.5017e-02      1.249e+01     2.1538e-01     6.5017e-02     0.000000e+00          
     22        47     13097      1.256e+01      1.246e+01     2.1359e-01     6.6827e-02      1.246e+01     2.1359e-01     6.6827e-02     0.000000e+00          
     22        48     13299      1.257e+01      1.248e+01     2.1363e-01     6.1911e-02      1.248e+01     2.1363e-01     6.1911e-02     0.000000e+00          
     22        49     13505      1.253e+01      1.243e+01     2.1105e-01     6.5978e-02      1.243e+01     2.1105e-01     6.5978e-02     0.000000e+00          
     22        50     13710      1.254e+01      1.245e+01     2.1120e-01     6.1219e-02      1.245e+01     2.1120e-01     6.1219e-02     0.000000e+00          
     22        51     13915      1.251e+01      1.241e+01     2.0869e-01     6.5354e-02      1.241e+01     2.0869e-01     6.5354e-02     0.000000e+00          
     22        52     14120      1.252e+01      1.243e+01     2.0886e-01     6.0539e-02      1.243e+01     2.0886e-01     6.0539e-02     0.000000e+00          
     22        53     14327      1.249e+01      1.238e+01     2.0639e-01     6.4507e-02      1.238e+01     2.0639e-01     6.4507e-02     0.000000e+00          
     22        54     14534      1.248e+01      1.239e+01     2.0593e-01     6.2048e-02      1.239e+01     2.0593e-01     6.2048e-02     0.000000e+00          
     22        55     14742      1.247e+01      1.238e+01     2.0498e-01     6.1703e-02      1.238e+01     2.0498e-01     6.1703e-02     0.000000e+00          
     22        56     14947      1.246e+01      1.237e+01     2.0406e-01     6.1347e-02      1.237e+01     2.0406e-01     6.1347e-02     0.000000e+00          
     22        57     15152      1.245e+01      1.236e+01     2.0308e-01     6.1174e-02      1.236e+01     2.0308e-01     6.1174e-02     0.000000e+00          
     22        58     15357      1.244e+01      1.235e+01     2.0220e-01     6.0731e-02      1.235e+01     2.0220e-01     6.0731e-02     0.000000e+00          
     22        59     15564      1.243e+01      1.234e+01     2.0123e-01     6.0642e-02      1.234e+01     2.0123e-01     6.0642e-02     0.000000e+00          
     22        60     15769      1.242e+01      1.233e+01     2.0031e-01     6.0434e-02      1.233e+01     2.0031e-01     6.0434e-02     0.000000e+00          
     22        61     15978      1.240e+01      1.232e+01     1.9902e-01     6.0648e-02      1.232e+01     1.9902e-01     6.0648e-02     0.000000e+00          
     22        62     16187      1.240e+01      1.231e+01     1.9812e-01     5.9586e-02      1.231e+01     1.9812e-01     5.9586e-02     0.000000e+00          
     22        63     16395      1.239e+01      1.230e+01     1.9716e-01     5.9368e-02      1.230e+01     1.9716e-01     5.9368e-02     0.000000e+00          
     22        64     16600      1.238e+01      1.229e+01     1.9634e-01     5.8753e-02      1.229e+01     1.9634e-01     5.8753e-02     0.000000e+00          
     22        65     16810      1.237e+01      1.228e+01     1.9539e-01     5.8787e-02      1.228e+01     1.9539e-01     5.8787e-02     0.000000e+00          
     22        66     17018      1.236e+01      1.228e+01     1.9469e-01     5.8041e-02      1.228e+01     1.9469e-01     5.8041e-02     0.000000e+00          
     22        67     17227      1.235e+01      1.227e+01     1.9375e-01     5.8249e-02      1.227e+01     1.9375e-01     5.8249e-02     0.000000e+00          
     22        68     17436      1.234e+01      1.226e+01     1.9303e-01     5.7736e-02      1.226e+01     1.9303e-01     5.7736e-02     0.000000e+00          
     22        69     17646      1.234e+01      1.225e+01     1.9224e-01     5.7564e-02      1.225e+01     1.9224e-01     5.7564e-02     0.000000e+00          
     22        70     17855      1.233e+01      1.224e+01     1.9146e-01     5.7390e-02      1.224e+01     1.9146e-01     5.7390e-02     0.000000e+00          
     22        71     18065      1.232e+01      1.224e+01     1.9075e-01     5.7018e-02      1.224e+01     1.9075e-01     5.7018e-02     0.000000e+00          
     22        72     18272      1.231e+01      1.223e+01     1.8995e-01     5.6987e-02      1.223e+01     1.8995e-01     5.6987e-02     0.000000e+00          
     22        73     18483      1.231e+01      1.222e+01     1.8925e-01     5.6605e-02      1.222e+01     1.8925e-01     5.6605e-02     0.000000e+00          
     22        74     18687      1.229e+01      1.221e+01     1.8843e-01     5.6679e-02      1.221e+01     1.8843e-01     5.6679e-02     0.000000e+00          
     22        75     18896      1.229e+01      1.220e+01     1.8779e-01     5.6115e-02      1.220e+01     1.8779e-01     5.6115e-02     0.000000e+00          
     22        76     19101      1.227e+01      1.219e+01     1.8688e-01     5.6490e-02      1.219e+01     1.8688e-01     5.6490e-02     0.000000e+00          
     22        77     19305      1.227e+01      1.219e+01     1.8635e-01     5.5494e-02      1.219e+01     1.8635e-01     5.5494e-02     0.000000e+00          
     22        78     19513      1.226e+01      1.217e+01     1.8526e-01     5.6442e-02      1.217e+01     1.8526e-01     5.6442e-02     0.000000e+00          
     22        79     19725      1.226e+01      1.217e+01     1.8486e-01     5.5017e-02      1.217e+01     1.8486e-01     5.5017e-02     0.000000e+00          
     22        80     19935      1.224e+01      1.216e+01     1.8373e-01     5.6101e-02      1.216e+01     1.8373e-01     5.6101e-02     0.000000e+00          
     22        81     20144      1.224e+01      1.215e+01     1.8314e-01     5.5089e-02      1.215e+01     1.8314e-01     5.5089e-02     0.000000e+00          
     22        82     20354      1.222e+01      1.214e+01     1.8198e-01     5.6081e-02      1.214e+01     1.8198e-01     5.6081e-02     0.000000e+00          
     22        83     20565      1.222e+01      1.214e+01     1.8153e-01     5.4851e-02      1.214e+01     1.8153e-01     5.4851e-02     0.000000e+00          
     22        84     20773      1.219e+01      1.211e+01     1.8006e-01     5.7441e-02      1.211e+01     1.8006e-01     5.7441e-02     0.000000e+00          
     22        85     20979      1.222e+01      1.214e+01     1.8061e-01     5.2897e-02      1.214e+01     1.8061e-01     5.2897e-02     0.000000e+00          
     22        86     21181      1.218e+01      1.209e+01     1.7869e-01     5.6799e-02      1.209e+01     1.7869e-01     5.6799e-02     0.000000e+00          
     22        87     21387      1.220e+01      1.212e+01     1.7919e-01     5.2591e-02      1.212e+01     1.7919e-01     5.2591e-02     0.000000e+00          
     22        88     21597      1.216e+01      1.208e+01     1.7728e-01     5.6501e-02      1.208e+01     1.7728e-01     5.6501e-02     0.000000e+00          
     22        89     21802      1.219e+01      1.211e+01     1.7781e-01     5.2117e-02      1.211e+01     1.7781e-01     5.2117e-02     0.000000e+00          
     22        90     22014      1.214e+01      1.206e+01     1.7572e-01     5.6356e-02      1.206e+01     1.7572e-01     5.6356e-02     0.000000e+00          
     22        91     22221      1.217e+01      1.209e+01     1.7623e-01     5.1626e-02      1.209e+01     1.7623e-01     5.1626e-02     0.000000e+00          
     22        92     22432      1.213e+01      1.205e+01     1.7414e-01     5.5856e-02      1.205e+01     1.7414e-01     5.5856e-02     0.000000e+00          
     22        93     22643      1.215e+01      1.207e+01     1.7457e-01     5.1351e-02      1.207e+01     1.7457e-01     5.1351e-02     0.000000e+00          
     22        94     22854      1.209e+01      1.200e+01     1.7225e-01     5.7889e-02      1.200e+01     1.7225e-01     5.7889e-02     0.000000e+00          
     22        95     23064      1.213e+01      1.205e+01     1.7243e-01     5.0390e-02      1.205e+01     1.7243e-01     5.0390e-02     0.000000e+00          
     22        96     23275      1.206e+01      1.197e+01     1.6949e-01     5.8380e-02      1.197e+01     1.6949e-01     5.8380e-02     0.000000e+00          
     22        97     23481      1.209e+01      1.201e+01     1.6971e-01     5.1646e-02      1.201e+01     1.6971e-01     5.1646e-02     0.000000e+00          
     22        98     23688      1.208e+01      1.200e+01     1.6866e-01     5.2668e-02      1.200e+01     1.6866e-01     5.2668e-02     0.000000e+00          
     22        99     23898      1.207e+01      1.199e+01     1.6805e-01     5.2822e-02      1.199e+01     1.6805e-01     5.2822e-02     0.000000e+00          
