# Kona Param. Contn. convergence history (opt tol = 4.772971e-04 | feas tol = 1.000000e-06)
# outer     inner      cost      objective     lagrangian       opt norm      feas norm       homotopy        hom opt       hom feas     mu             
      0         0        18      2.647e+02      2.647e+02     4.7730e+00     0.0000e+00     0.0000e+00     0.0000e+00     0.0000e+00     1.0000     

      1         0        33      2.644e+02      2.644e+02     4.7730e+00     6.9208e-02      2.712e+00     5.0176e-04     7.0959e-04     9.897470e-01          
      1         1        62      2.644e+02      2.644e+02     4.7719e+00     6.9873e-02      2.712e+00     9.2967e-10     2.2776e-08     9.897470e-01          

      2         0        90      2.640e+02      2.640e+02     4.7704e+00     2.0813e-01      8.025e+00     1.9829e-03     4.8981e-03     9.696380e-01          
      2         1       125      2.639e+02      2.639e+02     4.7638e+00     2.0993e-01      8.025e+00     7.2214e-09     3.5286e-11     9.696380e-01          

      3         0       154      2.630e+02      2.630e+02     4.7569e+00     4.8230e-01      1.822e+01     8.8204e-03     2.4852e-02     9.309178e-01          
      3         1       190      2.630e+02      2.630e+02     4.7257e+00     4.8244e-01      1.823e+01     1.2755e-06     6.9841e-08     9.309178e-01          

      4         0       225      2.618e+02      2.619e+02     4.7222e+00     7.9347e-01      2.997e+01     3.0601e-02     6.4788e-02     8.861581e-01          
      4         1       268      2.618e+02      2.619e+02     4.6580e+00     7.7793e-01      2.997e+01     1.2305e-05     1.9343e-09     8.861581e-01          

      5         0       304      2.609e+02      2.610e+02     4.6913e+00     9.8283e-01      3.871e+01     7.8902e-02     1.0220e-01     8.527035e-01          
      5         1       347      2.609e+02      2.611e+02     4.6116e+00     9.6576e-01      3.871e+01     2.2391e-05     3.0577e-07     8.527035e-01          

      6         0       388      2.601e+02      2.602e+02     4.6750e+00     1.1180e+00      4.657e+01     1.4334e-01     1.3956e-01     8.225446e-01          
      6         1       431      2.601e+02      2.603e+02     4.5903e+00     1.1004e+00      4.658e+01     3.7597e-05     1.0780e-06     8.225446e-01          

      7         0       472      2.592e+02      2.594e+02     4.6732e+00     1.2221e+00      5.478e+01     2.3002e-01     1.7916e-01     7.909654e-01          
      7         1       515      2.592e+02      2.596e+02     4.6008e+00     1.2011e+00      5.481e+01     7.0962e-05     2.6084e-06     7.909654e-01          

      8         0       551      2.582e+02      2.584e+02     4.6929e+00     1.2927e+00      6.424e+01     3.5260e-01     2.2157e-01     7.545849e-01          
      8         1       594      2.581e+02      2.587e+02     4.6599e+00     1.2655e+00      6.428e+01     1.4693e-04     5.6607e-06     7.545849e-01          

      9         0       636      2.568e+02      2.572e+02     4.7487e+00     1.3137e+00      7.622e+01     5.3453e-01     2.6568e-01     7.085441e-01          
      9         1       679      2.567e+02      2.574e+02     4.7954e+00     1.2767e+00      7.630e+01     3.4508e-04     6.9554e-06     7.085441e-01          

     10         0       729      2.547e+02      2.551e+02     4.8649e+00     1.2448e+00      9.321e+01     8.1933e-01     3.0410e-01     6.435492e-01          
     10         1       772      2.545e+02      2.553e+02     5.0430e+00     1.1953e+00      9.337e+01     9.8391e-04     1.6372e-05     6.435492e-01          

     11         0       823      2.506e+02      2.511e+02     5.0645e+00     1.0012e+00      1.206e+02     1.2780e+00     3.0679e-01     5.393824e-01          
     11         1       867      2.499e+02      2.507e+02     5.4069e+00     9.5427e-01      1.210e+02     4.0682e-03     1.1366e-05     5.393824e-01          

     12         0       918      2.420e+02      2.424e+02     5.2200e+00     5.7929e-01      1.592e+02     1.8489e+00     2.1691e-01     3.912730e-01          
     12         1       976      2.389e+02      2.395e+02     5.7065e+00     5.9931e-01      1.609e+02     1.9665e-02     9.8861e-06     3.912730e-01          

     13         0      1035      2.222e+02      2.224e+02     5.1853e+00     2.5081e-01      1.979e+02     2.3264e+00     9.5943e-02     2.286583e-01          
     13         1      1093      2.107e+02      2.110e+02     5.8041e+00     3.0376e-01      2.054e+02     9.1480e-02     2.6464e-04     2.286583e-01          

     14         0      1151      1.760e+02      1.762e+02     5.0029e+00     1.3377e-01      2.137e+02     2.9010e+00     3.9956e-02     1.112309e-01          
     14         1      1211      1.450e+02      1.452e+02     5.5515e+00     1.5747e-01      2.333e+02     2.8455e-01     6.7201e-03     1.112309e-01          

     15         0      1373      7.494e+01      7.512e+01     4.0253e+00     1.9485e-01      1.724e+02     3.0641e+00     1.5934e-01     4.249442e-02          
     15         1      1527      4.026e+01      4.054e+01     3.5033e+00     5.4087e-01      1.793e+02     5.1984e-01     5.0604e-01     4.249442e-02          

     16         0      1897      5.552e+00      1.070e+01     1.2758e+01     5.2485e+01      6.796e+01     1.3100e+01     5.1801e+01     1.300528e-02          
     16         1      2121      7.996e+00      9.662e+00     5.4557e+00     2.2796e+01      6.639e+01     5.9187e+00     2.2499e+01     1.300528e-02          

     17         0      2544      1.139e+01      9.244e+00     2.5351e+00     9.6162e+00      3.216e+01     2.7367e+00     9.5661e+00     5.337981e-03          
     17         1      2757      1.445e+01      3.712e+00     3.1953e+00     3.6839e+00      2.588e+01     3.3675e+00     3.6800e+00     5.337981e-03          

     18         0      3167      1.315e+01      1.365e+01     1.4227e+00     1.6145e+00      3.370e+01     1.5567e+00     1.6054e+00     4.780701e-03          
     18         1      3374      1.362e+01      1.236e+01     7.0564e-01     4.6613e-01      3.227e+01     4.9181e-01     4.7701e-01     4.780701e-03          

     19         0      3785      1.330e+01      1.298e+01     4.1385e-01     1.7240e-01      3.128e+01     3.0758e-01     1.8028e-01     4.394540e-03          
     19         1      3993      1.321e+01      1.300e+01     4.4843e-01     1.0327e-01      3.131e+01     1.1033e-01     1.1222e-01     4.394540e-03          

     20         0      4405      1.302e+01      1.285e+01     3.6190e-01     9.0803e-02      2.910e+01     2.5523e-01     9.8152e-02     3.894540e-03          
     20         1      4609      1.302e+01      1.288e+01     3.9859e-01     6.9726e-02      2.913e+01     1.0817e-01     7.7854e-02     3.894540e-03          

     21         0      5021      1.260e+01      1.243e+01     3.0173e-01     8.6601e-02      2.629e+01     2.2442e-01     9.2862e-02     3.306709e-03          
     21         1      5229      1.256e+01      1.241e+01     3.3299e-01     7.4188e-02      2.627e+01     8.7814e-02     8.0672e-02     3.306709e-03          

     22         0      5641      1.225e+01      1.211e+01     2.6193e-01     8.0551e-02      2.298e+01     1.9568e-01     8.5046e-02     2.585392e-03          
     22         1      5845      1.233e+01      1.225e+01     2.8419e-01     5.0174e-02      2.310e+01     9.2774e-02     5.4657e-02     2.585392e-03          

     23         0      6255      1.224e+01      1.216e+01     2.4891e-01     5.2018e-02      2.302e+01     1.6235e-01     5.6176e-02     2.582910e-03          
     23         1      6463      1.222e+01      1.213e+01     2.7274e-01     5.1547e-02      2.299e+01     8.4745e-02     5.6210e-02     2.582910e-03          

     24         0      6877      1.213e+01      1.201e+01     2.2227e-01     6.3093e-02      2.078e+01     1.6566e-01     6.6886e-02     2.082910e-03          
     24         1      7082      1.215e+01      1.206e+01     2.4010e-01     5.3030e-02      2.082e+01     9.6910e-02     5.6791e-02     2.082910e-03          

     25         0      7497      1.205e+01      1.192e+01     1.9326e-01     7.6075e-02      1.654e+01     1.6678e-01     7.8027e-02     1.098041e-03          
     25         1      7701      1.207e+01      1.195e+01     1.9111e-01     6.6674e-02      1.658e+01     1.2630e-01     6.8496e-02     1.098041e-03          

     26         0      8114      1.202e+01      1.188e+01     1.7617e-01     7.9208e-02      1.443e+01     1.5592e-01     8.0184e-02     6.043441e-04          
     26         1      8323      1.202e+01      1.190e+01     1.7232e-01     7.5412e-02      1.444e+01     1.4144e-01     7.6385e-02     6.043441e-04          

     27         0      8742      1.194e+01      1.181e+01     1.6675e-01     8.9490e-02      1.249e+01     1.6147e-01     8.9724e-02     1.610071e-04          
     27         1      8952      1.195e+01      1.182e+01     1.6031e-01     8.4411e-02      1.250e+01     1.5317e-01     8.4650e-02     1.610071e-04          

     28         0      9369      1.191e+01      1.177e+01     1.6531e-01     9.0699e-02      1.177e+01     1.6531e-01     9.0699e-02     0.000000e+00          
     28         1      9578      1.191e+01      1.178e+01     1.5720e-01     8.7949e-02      1.178e+01     1.5720e-01     8.7949e-02     0.000000e+00          
     28         2      9781      1.188e+01      1.175e+01     1.5381e-01     9.1872e-02      1.175e+01     1.5381e-01     9.1872e-02     0.000000e+00          
     28         3      9988      1.184e+01      1.171e+01     1.5208e-01     9.1238e-02      1.171e+01     1.5208e-01     9.1238e-02     0.000000e+00          
     28         4     10197      1.182e+01      1.170e+01     1.5208e-01     8.7657e-02      1.170e+01     1.5208e-01     8.7657e-02     0.000000e+00          
     28         5     10406      1.181e+01      1.168e+01     1.5023e-01     8.9525e-02      1.168e+01     1.5023e-01     8.9525e-02     0.000000e+00          
     28         6     10617      1.178e+01      1.166e+01     1.4925e-01     8.8509e-02      1.166e+01     1.4925e-01     8.8509e-02     0.000000e+00          
     28         7     10827      1.176e+01      1.164e+01     1.4811e-01     8.7976e-02      1.164e+01     1.4811e-01     8.7976e-02     0.000000e+00          
     28         8     11040      1.174e+01      1.163e+01     1.4757e-01     8.7048e-02      1.163e+01     1.4757e-01     8.7048e-02     0.000000e+00          
     28         9     11252      1.172e+01      1.161e+01     1.4602e-01     8.7804e-02      1.161e+01     1.4602e-01     8.7804e-02     0.000000e+00          
