# Kona Param. Contn. convergence history (opt tol = 1.003324e-06 | feas tol = 1.000000e-06)
# outer     inner      cost      objective     lagrangian       opt norm      feas norm       homotopy        hom opt       hom feas     mu             
      0         0         1     -8.273e+00     -8.273e+00     1.0033e+01     0.0000e+00     0.0000e+00     0.0000e+00     0.0000e+00     1.0000     

      1         0         7     -8.773e+00     -8.773e+00     1.0042e+01     7.0362e-02     -4.227e-02     3.7650e-04     3.4892e-04     9.950411e-01          
      1         1        15     -8.775e+00     -8.775e+00     1.0041e+01     7.0766e-02     -4.227e-02     2.6610e-08     1.2274e-08     9.950411e-01          

      2         0        26     -1.389e+01     -1.389e+01     1.0140e+01     7.8775e-01     -6.160e-01     3.8817e-02     3.9876e-02     9.450834e-01          
      2         1        40     -1.421e+01     -1.417e+01     1.0111e+01     8.2531e-01     -6.159e-01     1.6897e-06     8.7986e-07     9.450834e-01          

      3         0        55     -1.915e+01     -1.906e+01     1.0256e+01     1.4933e+00     -1.345e+00     4.5762e-02     1.0508e-01     9.025197e-01          
      3         1        71     -1.936e+01     -1.912e+01     1.0147e+01     1.5066e+00     -1.339e+00     1.9534e-02     3.3452e-03     9.025197e-01          

      4         0        97     -2.399e+01     -2.367e+01     1.0337e+01     2.0968e+00     -2.237e+00     1.7044e-01     2.0284e-01     8.629750e-01          
      4         1       115     -2.414e+01     -2.343e+01     1.0116e+01     2.0921e+00     -2.212e+00     1.3440e-01     3.5880e-02     8.629750e-01          

      5         0       147     -2.860e+01     -2.786e+01     1.0385e+01     2.6164e+00     -3.291e+00     3.6335e-01     3.2254e-01     8.246935e-01          
      5         1       167     -2.874e+01     -2.723e+01     1.0038e+01     2.6006e+00     -3.228e+00     2.7568e-01     1.0525e-01     8.246935e-01          

      6         0       201     -3.336e+01     -3.196e+01     1.0426e+01     3.0810e+00     -4.493e+00     5.9209e-01     4.6012e-01     7.871883e-01          
      6         1       223     -3.348e+01     -3.080e+01     9.9615e+00     3.0527e+00     -4.368e+00     4.0287e-01     2.1109e-01     7.871883e-01          

      7         0       261     -3.800e+01     -3.567e+01     1.0411e+01     3.4343e+00     -5.845e+00     8.8410e-01     6.0654e-01     7.488957e-01          
      7         1       287     -3.812e+01     -3.394e+01     9.8716e+00     3.3966e+00     -5.644e+00     5.1798e-01     3.6951e-01     7.488957e-01          

      8         0       335     -4.282e+01     -3.919e+01     1.0332e+01     3.6946e+00     -7.345e+00     1.2604e+00     7.6924e-01     7.079076e-01          
      8         1       365     -4.295e+01     -3.696e+01     9.7997e+00     3.6494e+00     -7.072e+00     6.1321e-01     6.0912e-01     7.079076e-01          

      9         0       417     -4.743e+01     -4.215e+01     1.0113e+01     3.7945e+00     -8.911e+00     1.7410e+00     9.5772e-01     6.626922e-01          
      9         1       451     -4.762e+01     -3.980e+01     9.7293e+00     3.7637e+00     -8.650e+00     6.6674e-01     9.7706e-01     6.626922e-01          

     10         0       513     -5.252e+01     -4.518e+01     9.7713e+00     3.8634e+00     -1.044e+01     2.3083e+00     1.2431e+00     6.130532e-01          
     10         1       553     -5.282e+01     -4.333e+01     9.7035e+00     3.8944e+00     -1.039e+01     6.2956e-01     1.5210e+00     6.130532e-01          

     11         0       627     -5.760e+01     -4.804e+01     9.2975e+00     3.9765e+00     -1.176e+01     2.8950e+00     1.6712e+00     5.650051e-01          
     11         1       671     -5.802e+01     -4.738e+01     9.6456e+00     4.1284e+00     -1.229e+01     4.6415e-01     2.1799e+00     5.650051e-01          

     12         0       749     -6.205e+01     -5.058e+01     8.7731e+00     4.1866e+00     -1.303e+01     3.3586e+00     2.1850e+00     5.261293e-01          
     12         1       793     -6.238e+01     -5.111e+01     9.4930e+00     4.4078e+00     -1.430e+01     2.2422e-01     2.7739e+00     5.261293e-01          

     13         0       877     -6.556e+01     -5.276e+01     8.2660e+00     4.4032e+00     -1.453e+01     3.6494e+00     2.6621e+00     4.953874e-01          
     13         1       921     -6.580e+01     -5.424e+01     9.2673e+00     4.6356e+00     -1.644e+01     6.7275e-02     3.2446e+00     4.953874e-01          

     14         0      1009     -6.831e+01     -5.479e+01     7.8157e+00     4.5985e+00     -1.631e+01     3.8214e+00     3.0772e+00     4.697416e-01          
     14         1      1053     -6.870e+01     -5.702e+01     9.0119e+00     4.7985e+00     -1.871e+01     2.9488e-01     3.6094e+00     4.697416e-01          

     15         0      1141     -7.123e+01     -5.718e+01     7.4680e+00     4.7746e+00     -1.837e+01     3.9271e+00     3.4157e+00     4.472486e-01          
     15         1      1185     -7.179e+01     -5.987e+01     8.7723e+00     4.9320e+00     -2.108e+01     5.2633e-01     3.8879e+00     4.472486e-01          

     16         0      1273     -7.436e+01     -5.987e+01     7.1903e+00     4.9041e+00     -2.066e+01     3.9935e+00     3.6852e+00     4.264010e-01          
     16         1      1317     -7.514e+01     -6.285e+01     8.5427e+00     5.0199e+00     -2.357e+01     7.4433e-01     4.0968e+00     4.264010e-01          

     17         0      1405     -7.761e+01     -6.284e+01     6.9619e+00     4.9762e+00     -2.314e+01     4.0346e+00     3.8963e+00     4.066379e-01          
     17         1      1449     -7.865e+01     -6.595e+01     8.3171e+00     5.0510e+00     -2.615e+01     9.4476e-01     4.2435e+00     4.066379e-01          

     18         0      1537     -8.104e+01     -6.599e+01     6.7791e+00     4.9991e+00     -2.567e+01     4.0481e+00     4.0469e+00     3.885575e-01          
     18         1      1581     -8.225e+01     -6.908e+01     8.1119e+00     5.0344e+00     -2.865e+01     1.1164e+00     4.3302e+00     3.885575e-01          

     19         0      1669     -8.463e+01     -6.929e+01     6.6360e+00     4.9787e+00     -2.815e+01     4.0500e+00     4.1414e+00     3.718257e-01          
     19         1      1713     -8.596e+01     -7.229e+01     7.9295e+00     4.9824e+00     -3.104e+01     1.2611e+00     4.3699e+00     3.718257e-01          

     20         0      1801     -8.852e+01     -7.290e+01     6.5189e+00     4.9233e+00     -3.069e+01     4.0517e+00     4.1924e+00     3.554047e-01          
     20         1      1845     -9.000e+01     -7.576e+01     7.7570e+00     4.8991e+00     -3.347e+01     1.3871e+00     4.3718e+00     3.554047e-01          

     21         0      1933     -9.295e+01     -7.698e+01     6.4158e+00     4.8444e+00     -3.343e+01     4.0526e+00     4.2084e+00     3.385638e-01          
     21         1      1977     -9.460e+01     -7.963e+01     7.5822e+00     4.7912e+00     -3.607e+01     1.4973e+00     4.3371e+00     3.385638e-01          

     22         0      2065     -9.765e+01     -8.123e+01     6.2999e+00     4.7390e+00     -3.633e+01     4.0343e+00     4.1876e+00     3.220873e-01          
     22         1      2109     -9.943e+01     -8.363e+01     7.3978e+00     4.6656e+00     -3.878e+01     1.5849e+00     4.2692e+00     3.220873e-01          

     23         0      2197     -1.026e+02     -8.713e+01     5.9710e+00     4.5393e+00     -4.153e+01     4.0749e+00     4.1535e+00     2.948138e-01          
     23         1      2241     -1.054e+02     -8.880e+01     6.8885e+00     4.3660e+00     -4.398e+01     1.6828e+00     4.0893e+00     2.948138e-01          

     24         0      2329     -1.053e+02     -9.160e+01     5.3285e+00     4.1768e+00     -4.902e+01     3.9392e+00     4.0139e+00     2.624367e-01          
     24         1      2373     -1.093e+02     -9.291e+01     6.0838e+00     3.9137e+00     -5.101e+01     1.7284e+00     3.7940e+00     2.624367e-01          

     25         0      2461     -1.062e+02     -9.456e+01     4.5913e+00     3.6853e+00     -5.666e+01     3.6257e+00     3.7380e+00     2.315526e-01          
     25         1      2505     -1.109e+02     -9.583e+01     5.2333e+00     3.4069e+00     -5.810e+01     1.7037e+00     3.4482e+00     2.315526e-01          

     26         0      2593     -1.068e+02     -9.738e+01     3.9073e+00     3.1967e+00     -6.415e+01     3.2712e+00     3.4098e+00     2.015016e-01          
     26         1      2637     -1.116e+02     -9.837e+01     4.4066e+00     2.8967e+00     -6.514e+01     1.6226e+00     3.0691e+00     2.015016e-01          

     27         0      2723     -1.070e+02     -1.004e+02     3.2539e+00     2.7135e+00     -7.212e+01     2.9071e+00     3.0432e+00     1.693679e-01          
     27         1      2767     -1.122e+02     -1.011e+02     3.5811e+00     2.3759e+00     -7.269e+01     1.4771e+00     2.6240e+00     1.693679e-01          

     28         0      2849     -1.065e+02     -1.039e+02     2.5733e+00     2.2040e+00     -8.147e+01     2.5063e+00     2.6133e+00     1.314963e-01          
     28         1      2893     -1.128e+02     -1.042e+02     2.6812e+00     1.7881e+00     -8.160e+01     1.2365e+00     2.0607e+00     1.314963e-01          

     29         0      2969     -1.054e+02     -1.080e+02     1.8446e+00     1.6589e+00     -9.309e+01     2.0167e+00     2.0739e+00     8.440552e-02          
     29         1      3007     -1.135e+02     -1.079e+02     1.6558e+00     1.0997e+00     -9.281e+01     8.5237e-01     1.3278e+00     8.440552e-02          

     30         0      3077     -1.037e+02     -1.127e+02     1.2077e+00     1.1790e+00     -1.081e+02     1.3829e+00     1.3747e+00     2.440419e-02          
     30         1      3115     -1.140e+02     -1.124e+02     4.6110e-01     2.9959e-01     -1.077e+02     2.6289e-01     3.8131e-01     2.440419e-02          

     31         0      3179     -1.101e+02     -1.140e+02     3.7421e-01     3.7964e-01     -1.138e+02     3.8361e-01     3.8850e-01     8.827925e-04          
     31         1      3213     -1.140e+02     -1.139e+02     1.6519e-02     1.0577e-02     -1.138e+02     9.6942e-03     1.3720e-02     8.827925e-04          

     32         0      3242     -1.139e+02     -1.140e+02     1.3251e-02     1.3660e-02     -1.140e+02     1.3328e-02     1.3730e-02     6.724052e-06          
     32         1      3268     -1.140e+02     -1.140e+02     1.2565e-04     8.0530e-05     -1.140e+02     7.3796e-05     1.0444e-04     6.724052e-06          

     33         0      3289     -1.140e+02     -1.140e+02     1.0029e-04     1.0354e-04     -1.140e+02     1.0127e-04     1.0444e-04     8.601083e-08          
     33         1      3313     -1.140e+02     -1.140e+02     1.6061e-06     1.0294e-06     -1.140e+02     9.4494e-07     1.3363e-06     8.601083e-08          
     33         2      3325     -1.140e+02     -1.140e+02     1.6065e-06     1.0296e-06     -1.140e+02     9.4480e-07     1.3361e-06     8.601083e-08          
     33         3      3337     -1.140e+02     -1.140e+02     1.6064e-06     1.0297e-06     -1.140e+02     9.4500e-07     1.3364e-06     8.601083e-08          
     33         4      3349     -1.140e+02     -1.140e+02     1.6065e-06     1.0296e-06     -1.140e+02     9.4480e-07     1.3361e-06     8.601083e-08          
     33         5      3361     -1.140e+02     -1.140e+02     1.6064e-06     1.0297e-06     -1.140e+02     9.4500e-07     1.3364e-06     8.601083e-08          
     33         6      3373     -1.140e+02     -1.140e+02     1.6065e-06     1.0296e-06     -1.140e+02     9.4480e-07     1.3361e-06     8.601083e-08          
     33         7      3385     -1.140e+02     -1.140e+02     1.6064e-06     1.0297e-06     -1.140e+02     9.4500e-07     1.3364e-06     8.601083e-08          
     33         8      3397     -1.140e+02     -1.140e+02     1.6065e-06     1.0296e-06     -1.140e+02     9.4480e-07     1.3361e-06     8.601083e-08          
     33         9      3409     -1.140e+02     -1.140e+02     1.6064e-06     1.0297e-06     -1.140e+02     9.4500e-07     1.3364e-06     8.601083e-08          
