# Kona Param. Contn. convergence history (opt tol = 2.630149e-06 | feas tol = 2.329004e-05)
# outer     inner      cost      objective     lagrangian       opt norm      feas norm       homotopy        hom opt       hom feas     mu             
      0         0         1      2.153e+02      2.153e+02     2.6301e+01     2.3290e+02     0.0000e+00     0.0000e+00     0.0000e+00     1.0000     

      1         0         9      6.438e+00      3.485e+04     1.9541e+03     2.3383e+02      1.836e+04     1.2507e+03     9.5999e+01     3.600217e-01          
      1         1        25      5.231e+02      1.731e+03     3.0762e+02     2.6069e+01      1.686e+03     1.7522e+02     5.9569e-05     3.600217e-01          

      2         0        57      2.921e+02      4.732e+02     6.6868e+01     8.3482e+00      1.653e+03     2.3739e+01     4.5118e-01     2.906624e-01          
      2         1        75      1.959e+02      3.227e+02     4.4971e+01     7.2088e+00      1.788e+03     1.9765e+00     1.3283e-08     2.906624e-01          

      3         0        92      1.839e+02      2.833e+02     3.9728e+01     5.8658e+00      1.667e+03     4.7821e+00     1.1411e-01     2.595870e-01          
      3         1       108      1.758e+02      2.714e+02     3.7961e+01     5.7904e+00      1.686e+03     4.8056e-02     1.1028e-07     2.595870e-01          

      4         0       127      1.333e+02      1.637e+02     2.2866e+01     2.1372e+00      1.198e+03     4.2135e+00     6.7455e-01     1.580260e-01          
      4         1       145      1.200e+02      1.596e+02     2.2196e+01     2.7269e+00      1.224e+03     1.1403e-01     8.5565e-08     1.580260e-01          

      5         0       164      5.875e+01      6.452e+01     9.9389e+00     7.1556e-01      5.342e+02     3.1070e+00     6.1787e-01     5.351722e-02          
      5         1       182      3.233e+01      4.711e+01     8.2082e+00     9.1419e-01      5.826e+02     4.0843e-01     3.5032e-07     5.351722e-02          

      6         0       218      1.439e+00      1.248e+01     4.4822e+00     5.8037e-01      2.952e+02     9.3203e-01     1.4960e-01     2.322271e-02          
      6         1       240     -3.023e+00      1.070e+01     3.8886e+00     5.7110e-01      3.066e+02     1.8481e-01     3.5046e-08     2.322271e-02          

      7         0       282     -1.455e+01     -1.070e+00     2.3200e+00     4.4568e-01      1.705e+02     3.1471e-01     8.1664e-02     1.202114e-02          
      7         1       308     -1.434e+01     -6.007e-01     2.1158e+00     4.0881e-01      1.731e+02     3.1303e-02     5.6078e-06     1.202114e-02          

      8         0       333     -1.750e+01     -5.127e+00     1.1359e+00     2.9146e-01      7.887e+01     1.8915e-01     6.3845e-02     5.380103e-03          
      8         1       377     -1.575e+01     -4.430e+00     9.9626e-01     2.4750e-01      7.968e+01     6.4597e-02     2.0165e-05     5.380103e-03          

      9         0       443     -1.405e+01     -5.438e+00     5.6665e-01     1.6491e-01      4.011e+01     5.5496e-02     1.7894e-02     2.826913e-03          
      9         1       487     -1.326e+01     -5.252e+00     5.3093e-01     1.5067e-01      4.024e+01     4.7921e-03     3.0148e-05     2.826913e-03          

     10         0       532     -1.012e+01     -5.566e+00     2.4142e-01     7.7530e-02      1.330e+01     3.0577e-02     1.0333e-02     1.154671e-03          
     10         1       576     -9.571e+00     -5.503e+00     2.2004e-01     6.8560e-02      1.335e+01     1.7011e-03     4.9789e-04     1.154671e-03          

     11         0       621     -6.979e+00     -5.620e+00     6.4497e-02     2.1676e-02     -7.582e-01     1.0583e-02     3.4321e-03     2.959703e-04          
     11         1       665     -6.780e+00     -5.610e+00     5.6816e-02     1.8574e-02     -7.487e-01     2.3817e-03     8.6214e-04     2.959703e-04          

     12         0       753     -5.980e+00     -5.632e+00     1.7008e-02     5.4777e-03     -4.235e+00     1.8232e-03     6.0586e-04     8.502333e-05          
     12         1       797     -5.979e+00     -5.630e+00     1.6438e-02     5.4504e-03     -4.233e+00     8.7901e-04     1.3873e-04     8.502333e-05          

     13         0       885     -5.770e+00     -5.636e+00     6.5259e-03     2.0900e-03     -5.093e+00     8.8638e-04     1.6195e-04     3.308904e-05          
     13         1       929     -5.773e+00     -5.636e+00     6.4449e-03     2.1323e-03     -5.092e+00     4.3919e-04     8.5524e-05     3.308904e-05          

     14         0      1017     -5.711e+00     -5.638e+00     3.6068e-03     1.1441e-03     -5.337e+00     4.5199e-04     1.3369e-04     1.832413e-05          
     14         1      1061     -5.713e+00     -5.638e+00     3.5774e-03     1.1719e-03     -5.337e+00     2.5184e-04     5.1350e-05     1.832413e-05          

     15         0      1149     -5.673e+00     -5.639e+00     1.7848e-03     5.4840e-04     -5.494e+00     2.9939e-04     1.2472e-04     8.832969e-06          
     15         1      1193     -5.676e+00     -5.639e+00     1.7285e-03     5.7180e-04     -5.494e+00     1.4822e-04     3.3996e-05     8.832969e-06          

     16         0      1281     -5.646e+00     -5.640e+00     4.8125e-04     1.2377e-04     -5.608e+00     2.3828e-04     8.1634e-05     1.941657e-06          
     16         1      1325     -5.650e+00     -5.640e+00     3.8999e-04     1.5481e-04     -5.608e+00     6.9915e-05     5.9124e-05     1.941657e-06          

     17         0      1413     -5.643e+00     -5.640e+00     1.3258e-04     4.6395e-05     -5.632e+00     7.7420e-05     3.2316e-05     4.869176e-07          
     17         1      1457     -5.643e+00     -5.641e+00     1.1548e-04     4.7452e-05     -5.633e+00     5.2345e-05     3.3433e-05     4.869176e-07          

     18         0      1545     -5.642e+00     -5.641e+00     9.2226e-05     2.9146e-05     -5.634e+00     4.5225e-05     1.6088e-05     3.693527e-07          
     18         1      1589     -5.642e+00     -5.641e+00     8.6175e-05     3.0731e-05     -5.635e+00     3.0735e-05     1.8754e-05     3.693527e-07          

     19         0      1677     -5.641e+00     -5.641e+00     4.0636e-05     1.2595e-05     -5.639e+00     3.0933e-05     1.0826e-05     1.034141e-07          
     19         1      1721     -5.641e+00     -5.641e+00     3.8398e-05     1.0843e-05     -5.639e+00     2.7924e-05     8.4210e-06     1.034141e-07          

     20         0      1809     -5.641e+00     -5.641e+00     3.1356e-05     6.7536e-06     -5.640e+00     2.8175e-05     6.2550e-06     4.340625e-08          
     20         1      1853     -5.641e+00     -5.641e+00     2.7418e-05     1.0044e-05     -5.640e+00     2.3987e-05     9.5782e-06     4.340625e-08          
     20         2      1897     -5.641e+00     -5.641e+00     2.5707e-05     5.9308e-06     -5.640e+00     2.2594e-05     5.0129e-06     4.340625e-08          
     20         3      1941     -5.641e+00     -5.641e+00     1.5161e-05     9.2022e-06     -5.640e+00     1.0214e-05     8.9058e-06     4.340625e-08          
     20         4      1985     -5.641e+00     -5.641e+00     1.3407e-05     3.3762e-06     -5.640e+00     9.1616e-06     1.1447e-06     4.340625e-08          
     20         5      2029     -5.641e+00     -5.641e+00     1.3344e-05     3.4667e-06     -5.640e+00     8.6206e-06     1.7231e-06     4.340625e-08          
     20         6      2073     -5.641e+00     -5.641e+00     1.2669e-05     3.4324e-06     -5.640e+00     8.0896e-06     1.5690e-06     4.340625e-08          
     20         7      2117     -5.641e+00     -5.641e+00     1.2312e-05     3.2213e-06     -5.640e+00     7.7657e-06     1.3817e-06     4.340625e-08          
     20         8      2161     -5.641e+00     -5.641e+00     1.2148e-05     3.1573e-06     -5.640e+00     7.5900e-06     1.0384e-06     4.340625e-08          
     20         9      2205     -5.641e+00     -5.641e+00     1.1805e-05     3.4488e-06     -5.640e+00     7.1062e-06     1.6362e-06     4.340625e-08          
