# Kona Param. Contn. convergence history (opt tol = 2.630149e-06 | feas tol = 2.329004e-05)
# outer     inner      cost      objective     lagrangian       opt norm      feas norm       homotopy        hom opt       hom feas     mu             
      0         0         1      2.153e+02      2.153e+02     2.6301e+01     2.3290e+02     0.0000e+00     0.0000e+00     0.0000e+00     1.0000     

      1         0         8      6.438e+00      3.485e+04     1.9541e+03     2.3383e+02      1.836e+04     1.2507e+03     9.5999e+01     3.600217e-01          
      1         1        25      5.234e+02      1.731e+03     3.0760e+02     2.6067e+01      1.686e+03     1.7520e+02     1.4127e-05     3.600217e-01          

      2         0        61      2.922e+02      4.741e+02     6.6981e+01     8.3821e+00      1.654e+03     2.3746e+01     4.4518e-01     2.911865e-01          
      2         1        80      1.961e+02      3.234e+02     4.5065e+01     7.2316e+00      1.790e+03     1.9752e+00     3.5356e-08     2.911865e-01          

      3         0       101      1.841e+02      2.841e+02     3.9836e+01     5.8903e+00      1.670e+03     4.7966e+00     1.1449e-01     2.602209e-01          
      3         1       122      1.761e+02      2.722e+02     3.8068e+01     5.8142e+00      1.689e+03     4.7982e-02     1.8085e-08     2.602209e-01          

      4         0       141      1.338e+02      1.644e+02     2.2968e+01     2.1538e+00      1.202e+03     4.2298e+00     6.7399e-01     1.587696e-01          
      4         1       166      1.204e+02      1.604e+02     2.2301e+01     2.7445e+00      1.227e+03     1.1367e-01     3.9050e-08     1.587696e-01          

      5         0       191      5.911e+01      6.483e+01     9.9712e+00     7.1733e-01      5.354e+02     3.1262e+00     6.2460e-01     5.370173e-02          
      5         1       216      3.254e+01      4.734e+01     8.2335e+00     9.1653e-01      5.840e+02     4.1116e-01     6.1043e-08     5.370173e-02          

      6         0       264      1.515e+00      1.254e+01     4.4904e+00     5.8052e-01      2.953e+02     9.3794e-01     1.5029e-01     2.324738e-02          
      6         1       291     -2.990e+00      1.073e+01     3.8928e+00     5.7145e-01      3.069e+02     1.8635e-01     1.4053e-08     2.324738e-02          

      7         0       343     -1.454e+01     -1.059e+00     2.3223e+00     4.4591e-01      1.707e+02     3.1508e-01     8.1716e-02     1.203358e-02          
      7         1       380     -1.433e+01     -5.909e-01     2.1179e+00     4.0904e-01      1.733e+02     3.1370e-02     7.4136e-06     1.203358e-02          

      8         0       417     -1.751e+01     -5.128e+00     1.1363e+00     2.9157e-01      7.887e+01     1.8968e-01     6.4021e-02     5.380016e-03          
      8         1       460     -1.576e+01     -4.430e+00     9.9627e-01     2.4753e-01      7.968e+01     6.4201e-02     3.3096e-04     5.380016e-03          

      9         0       542     -1.405e+01     -5.437e+00     5.6697e-01     1.6498e-01      4.014e+01     5.5440e-02     1.7863e-02     2.829042e-03          
      9         1       585     -1.325e+01     -5.246e+00     5.3150e-01     1.5049e-01      4.028e+01     4.7367e-03     1.1474e-03     2.829042e-03          

     10         0       628     -1.016e+01     -5.556e+00     2.4667e-01     7.8555e-02      1.381e+01     2.9920e-02     9.5764e-03     1.185697e-03          
     10         1       671     -9.639e+00     -5.498e+00     2.2619e-01     6.9920e-02      1.386e+01     3.3569e-03     1.4120e-03     1.185697e-03          

     11         0       757     -7.179e+00     -5.614e+00     7.3421e-02     2.5101e-02      4.589e-02     1.1191e-02     4.1544e-03     3.445836e-04          
     11         1       800     -6.966e+00     -5.610e+00     6.5697e-02     2.1712e-02      5.019e-02     4.6104e-03     2.3319e-03     3.445836e-04          

     12         0       886     -6.355e+00     -5.621e+00     3.4127e-02     1.1653e-02     -2.676e+00     3.0055e-03     1.5499e-03     1.792065e-04          
     12         1       929     -6.345e+00     -5.620e+00     3.3994e-02     1.1535e-02     -2.676e+00     2.0918e-03     1.6544e-03     1.792065e-04          

     13         0      1015     -5.864e+00     -5.631e+00     1.0955e-02     4.0095e-03     -4.701e+00     1.8178e-03     1.7084e-03     5.662810e-05          
     13         1      1058     -5.870e+00     -5.632e+00     1.1019e-02     3.7156e-03     -4.702e+00     8.8957e-04     2.8573e-04     5.662810e-05          

     14         0      1144     -5.665e+00     -5.635e+00     2.3439e-03     7.1844e-04     -5.510e+00     1.6116e-03     5.4702e-04     7.626256e-06          
     14         1      1187     -5.666e+00     -5.638e+00     1.6928e-03     6.3004e-04     -5.513e+00     6.5779e-04     4.6284e-04     7.626256e-06          

     15         0      1273     -5.644e+00     -5.639e+00     7.3281e-04     1.3538e-04     -5.622e+00     6.7616e-04     1.0556e-04     1.008116e-06          
     15         1      1316     -5.650e+00     -5.639e+00     5.4311e-04     2.9814e-04     -5.623e+00     4.7070e-04     2.6798e-04     1.008116e-06          

     16         0      1402     -5.646e+00     -5.640e+00     4.4546e-04     1.4868e-04     -5.623e+00     3.7767e-04     1.1841e-04     9.836093e-07          
     16         1      1445     -5.644e+00     -5.640e+00     4.2445e-04     9.9008e-05     -5.623e+00     3.5170e-04     6.6119e-05     9.836093e-07          

     17         0      1531     -5.643e+00     -5.640e+00     3.6179e-04     1.2698e-04     -5.627e+00     3.1027e-04     1.1526e-04     7.541686e-07          
     17         1      1574     -5.644e+00     -5.640e+00     3.1684e-04     1.1749e-04     -5.627e+00     2.6028e-04     1.0233e-04     7.541686e-07          

     18         0      1660     -5.642e+00     -5.640e+00     2.8098e-04     6.8924e-05     -5.634e+00     2.6036e-04     5.8319e-05     3.738720e-07          
     18         1      1703     -5.642e+00     -5.640e+00     2.7561e-04     5.7526e-05     -5.634e+00     2.5479e-04     4.7614e-05     3.738720e-07          

     19         0      1789     -5.641e+00     -5.640e+00     2.3647e-04     8.0170e-05     -5.638e+00     2.3076e-04     7.8632e-05     1.380218e-07          
     19         1      1832     -5.641e+00     -5.640e+00     2.3367e-04     3.5447e-05     -5.638e+00     2.2791e-04     3.1334e-05     1.380218e-07          

     20         0      1918     -5.640e+00     -5.640e+00     1.6113e-04     9.6082e-05     -5.639e+00     1.5921e-04     9.6032e-05     5.439631e-08          
     20         1      1961     -5.641e+00     -5.640e+00     1.5211e-04     1.8025e-05     -5.639e+00     1.5010e-04     1.6507e-05     5.439631e-08          
     20         2      2004     -5.641e+00     -5.640e+00     1.5000e-04     2.4674e-05     -5.639e+00     1.4800e-04     2.3132e-05     5.439631e-08          
     20         3      2047     -5.641e+00     -5.640e+00     1.4572e-04     2.5444e-05     -5.639e+00     1.4370e-04     2.4537e-05     5.439631e-08          
     20         4      2090     -5.641e+00     -5.640e+00     1.4474e-04     1.8211e-05     -5.639e+00     1.4272e-04     1.6578e-05     5.439631e-08          
     20         5      2133     -5.641e+00     -5.640e+00     1.3679e-04     3.7361e-05     -5.639e+00     1.3476e-04     3.6039e-05     5.439631e-08          
     20         6      2176     -5.640e+00     -5.640e+00     1.3517e-04     1.1472e-05     -5.639e+00     1.3312e-04     1.1193e-05     5.439631e-08          
     20         7      2219     -5.641e+00     -5.640e+00     1.3427e-04     1.4645e-05     -5.639e+00     1.3222e-04     1.3993e-05     5.439631e-08          
     20         8      2262     -5.641e+00     -5.640e+00     1.3228e-04     1.7375e-05     -5.639e+00     1.3023e-04     1.6832e-05     5.439631e-08          
     20         9      2305     -5.641e+00     -5.640e+00     1.3152e-04     1.4824e-05     -5.639e+00     1.2947e-04     1.3679e-05     5.439631e-08          
